@relation full_df
@attribute Country {'Austria','Belgium','Bulgaria','Cyprus','Croatia','Czechia','Denmark','Estonia','Finland','France','Germany','Greece','Hungary','Ireland','Italy','Latvia','Lithuania','Luxembourg','Malta','Netherlands','Poland','Portugal','Romania','Slovakia','Slovenia','Spain','Sweden'}
@attribute G3.1 numeric
@attribute G3.2 numeric
@attribute G3.3 numeric
@attribute G3.4 numeric
@attribute G3.5 numeric
@attribute G3.6 numeric
@attribute G3.7 numeric
@attribute G4.1 numeric
@attribute G4.2 numeric
@attribute G4.3 numeric
@attribute G4.4 numeric
@attribute G4.5 numeric
@attribute G5.1 numeric
@attribute G5.2 numeric
@attribute G5.3 numeric
@attribute G5.4 numeric
@attribute G5.5 numeric
@attribute G5.6 numeric
@attribute G5.7 numeric
@attribute G6.1 numeric
@attribute G6.2 numeric
@attribute G6.3 numeric
@attribute G7.1 numeric
@attribute G7.2 numeric
@attribute G8.1 numeric
@attribute G8.2 numeric
@attribute G8.3 numeric
@attribute G9.1 numeric
@attribute G9.2 numeric
@attribute G9.3 numeric
@attribute G9.4 numeric
@attribute G9.6 numeric
@attribute G9.7 numeric
@attribute G9.8 numeric
@attribute G9.9 numeric
@attribute G9.10 numeric
@attribute G9.11 numeric
@attribute G11.1 numeric
@attribute G11.2 numeric
@attribute G11.3 numeric
@attribute G11.4 numeric
@attribute G12.1 numeric
@attribute G12.2 numeric
@attribute G13.1 numeric
@attribute G13.2 numeric
@attribute G15.1 numeric
@attribute G16.1 numeric
@attribute G16.2 numeric
@attribute G17.1 numeric
@attribute AHDI numeric
@data
'Belgium',74,14.7,1.8,11.532,2,3.4,219.77,8.4,19.399999999999999,36,45.2,14,5.8,7.8999999999999986,7.2000000000000028,4.5,42.4,39,5,0.3,0.7,82.96,8.3089999999999993,3.9,69,14,2.2999999999999998,52.5,53,15.6,60.3,39.606000000000002,51.03799999999999,49.77,44.33,0.52373999999999998,23.956800000000001,16.7,13.3,9.3000000000000007,2.1,54.7,39.299999999999997,10.8,15,24.3,58.6,62,73.7,0.88535929881943
'Bulgaria',67.2,14.1,1.1000000000000001,6.1520000000000001,3.3,6.7,422.04,13.9,5.5,24.7,24.6,13.6,13.9,10.5,8.0999999999999943,8.5,27.1,26,2,7.9,13.7,63.72,35.506999999999998,30.1,73.2,9.6999999999999993,2.4,34.9,23,18.8,52.1,6.3940000000000001,11.323,6.72,7.6934000000000005,0.50224000000000002,2.7993000000000001,11.6,20.2,13.7,1.2,31.5,66.7,8.3000000000000007,13.1,48,25.4,34,45.1,0.732054711472739
'Czechia',62,20.5,0.1,6.5670000000000002,1.6,3.2,324.13,6.7,16.600000000000001,21.6,46.1,16.5,20.100000000000001,3.5999999999999979,13.800000000000011,3.3999999999999986,20.6,28,0,0.2,0.4,82.3,22.65,2.8,76.7,11.5,0.6,45,38,27.6,40,25.552999999999997,32.684600000000003,29.61,31.345600000000001,0.76539999999999997,13.057200000000002,7.3,7.8,5.7,1.5,34.5,43.6,12.2,11.1,38,53.8,51,41.1,0.853689453362506
'Denmark',69.7,14.9,0.3,8.0239999999999991,3,3.8,229.9,9.9,15.8,33.1,50.4,23.3,14.6,9.2000000000000028,6,4.7000000000000028,39.700000000000003,32.9,4,1.8,0.3,92.9,48.017000000000003,2.8,79.099999999999994,22.4,0.8,53.3,50,17.399999999999999,87.1,33.212000000000003,33.123999999999995,41.16,21.564399999999999,0.37496000000000002,13.392000000000001,14.9,7.5,7.7,1.9,51.5,67.5,8.9,8.4,16.3,91.7,87,60.7,0.927985914997706
'Germany',65.5,16.899999999999999,0.1,9.9819999999999993,2.2999999999999998,3.8,240.98,10.3,19.100000000000001,26,52,20.100000000000001,20.100000000000001,3.9,7.7000000000000028,1.8000000000000114,31.7,27,6,0,0.2,95.97,14.554,2.5,79.2,15.5,1.2,51,29,23.7,54.4,34.5,43.0274,50.47,40.154400000000003,1.1945400000000002,8.416500000000001,12,13.1,5.7,1.8,66.7,36.9,10.7,25.2,32.299999999999997,59.1,74,52.8,0.912718769135003
'Estonia',56.6,21,0.4,8.298,1.1000000000000001,2.4,383.86,9.8000000000000007,22.5,36.5,44,15.7,21.8,18.3,6.7999999999999972,4.8999999999999986,28.7,28.6,1,5.8,4.7,87.87,52.277999999999999,2.5,78.900000000000006,20.2,0.9,41.8,26,17.600000000000001,49.6,15.341000000000001,43.432999999999993,13.545,42.385199999999998,1.5350999999999999,24.831000000000003,13.8,7.4,6.9,1.7,28.9,53.7,15.3,10.199999999999999,58.4,80,55,43.6,0.823234725177553
'Ireland',84,15.2,0.9,18.419,2.1,3.3,202.64,5.0999999999999996,15.4,40.700000000000003,53.9,35.200000000000003,14.4,6.8999999999999986,10.799999999999997,0.29999999999999716,24.3,22.8,1,0.2,0.2,61.15,6.3170000000000002,4.9000000000000004,73.3,19.8,1.6,48.6,28,36.6,54.6,33.212000000000003,38.802399999999999,54.88,36.893999999999998,0.53320000000000001,11.922599999999999,12.5,8.8000000000000007,10.1,2.1,37.6,53.5,13.2,6.5,18.8,61.1,74,60.6,0.900298443524321
'Greece',79.3,17.3,7.5,4.09,2.2999999999999998,3.8,235.6,4.0999999999999996,6.2,27.8,16.7,17.600000000000001,7.9,3.6000000000000014,18.600000000000009,4,21.7,17.3,3,0.5,0.3,93.4,30.190999999999999,17.899999999999999,68.400000000000006,15.9,12.2,38.200000000000003,38,13.1,33.700000000000003,12.788,47.252399999999994,51.555,43.815199999999997,0.89182000000000006,24.579900000000002,12.5,16.899999999999999,12.5,1.2,28.1,35.799999999999997,9,20.2,47.4,52.1,57,17.7,0.837154444671272
'Spain',75.3,14.1,0,7.65,1.8,3.1,181.3,17.3,10.9,35.1,43.4,21.5,11.9,5.6000000000000014,10.800000000000004,5,41.9,35.799999999999997,3,0.3,0.4,86.62,18.852,7.5,73.8,20.9,5.3,40.1,43,15.8,60.8,21.712000000000003,13.756600000000001,23.52,8.6943999999999999,0.45150000000000001,5.9892000000000003,14.7,11.6,12.1,1.9,34.700000000000003,43,7.5,9.9,41.1,57.6,37,61.2,0.870065143352654
'France',66.7,15.4,0.8,14.175000000000001,2.7,4.5,196.06,8.1999999999999993,15.9,33.700000000000003,51.3,26.6,15.8,5.3999999999999986,6.2000000000000028,3.5999999999999943,37.1,40.299999999999997,2,0.5,0.5,79.3,22.463999999999999,6.2,72,16.7,3.4,50.8,48,13.3,30.7,20.446999999999999,39.1066,49.98,35.893000000000001,0.54610000000000003,13.95,11.5,14.7,10.6,1.9,46.3,34.200000000000003,6.9,14.9,32.799999999999997,74.7,59,24.8,0.889829697235138
'Croatia',60.5,18.2,0.3,8.5730000000000004,2.9,4.8,370.95,3,8.5,22,31.8,18.600000000000001,10.5,7.3000000000000007,9.8999999999999986,4.3999999999999986,19.899999999999999,26.3,7,0.9,1.1000000000000001,36.9,36.792999999999999,6.6,66.5,14.3,2.4,39.700000000000003,26,19.7,40.1,23,29.946799999999993,38.814999999999998,25.768600000000003,1.2229199999999998,9.8766000000000016,10.199999999999999,2.7,11.8,1.1000000000000001,30.2,83.4,6,5.9,58.1,33,18,22.8,0.784859605225299
'Italy',72.900000000000006,10.8,1.3,8.770999999999999,1.9,3.1,175,13.5,12.1,17.399999999999999,41.5,15.5,3.9,5.4000000000000021,17.899999999999999,6.0999999999999943,35.799999999999997,30,7,0.7,0.8,59.6,19.673999999999999,11.1,65.7,13.6,5.6,41.1,35,18.8,37.4,17.893999999999998,42.587999999999994,40.704999999999998,42.928599999999996,0.71637999999999991,5.2080000000000011,14,9.4,18.100000000000001,1.4,49.8,32.1,7.3,12.4,37.1,23.4,37,30.6,0.847991843175888
'Cyprus',77.8,14.7,1,10.481999999999999,1.3,2.2999999999999998,185.27,9.1999999999999993,5.9,40,48.1,10,10.4,11.299999999999997,11,2.5999999999999943,17.899999999999999,15.3,4,0.5,0.5,29.8,35.098999999999997,21,76,22,2.1,39.6,33,7.9,49.3,33.212000000000003,27.04,24.08,28.0566,0.68284000000000011,9.1233000000000004,31.1,12.7,13.7,2,16.100000000000001,50.2,11.3,8.4,43.1,50.3,59,19.7,0.817499900305232
'Latvia',47.1,21.6,2.8,7.3220000000000001,1.9,3.6,525.27,8.6999999999999993,11.3,31.4,47.5,13.8,19.600000000000001,15.100000000000001,3.2000000000000028,9.7000000000000028,30,34,6,10.199999999999999,8.6999999999999993,98.69,57.764000000000003,8,77.3,17.2,2.4,38.200000000000003,32,14.6,42.3,16.606000000000002,14.432600000000001,15.05,9.6953999999999994,0.77485999999999988,5.0406000000000004,19.3,6.1,7.9,1.2,41,43.3,6.3,18.3,55.4,69.599999999999994,45,43.8,0.788201472131123
'Lithuania',46.2,17.399999999999999,0.2,10.294,2,3.7,492.63,4,11.1,37.9,27.9,19.899999999999999,14,13.900000000000002,1,9.5,24.1,29.4,0,9.6,10,75.8,47.362000000000002,26.7,78,21.6,1.9,37.5,48,20.6,62.4,7.6589999999999998,38.971399999999996,32.585000000000001,35.034999999999997,1.5350999999999999,17.772300000000001,14,3.2,8.6,1.6,49.4,36.4,7.4,17.100000000000001,39.5,54.7,49,52,0.805269502996984
'Luxembourg',71.900000000000006,16,0.2,8.9550000000000001,1.5,2.8,202.08,7.2,14.4,41,48.1,4,1.4,2.3000000000000043,8.4999999999999929,3.3000000000000114,28.3,24.8,7,0.3,0.1,97,8.7080000000000002,2.4,72,15.2,1.3,56.2,41,6,64.900000000000006,28.105999999999998,42.114799999999995,59.954999999999998,37.7806,0.1978,9.8673000000000002,15.4,11.2,5.6,2,48.9,44.1,20.3,15.2,35.5,60.1,70,59.8,0.909429644919072
'Hungary',58.3,20,0.4,7.2590000000000003,2,3.7,506.71,11.8,11.3,22.5,55.7,12.2,12.2,7.8999999999999986,14.299999999999997,7.3000000000000043,12.2,30.4,6,2.8,3.1,80.36,18.12,5.4,72.599999999999994,15.7,1.1000000000000001,44.6,14,22.8,41,14.052999999999999,13.52,10.78,8.7516000000000016,0.90300000000000002,5.3382000000000005,22.3,5.3,11,1.5,35.9,50.5,6.6,12.4,26.1,52.8,43,67.5,0.789658386746579
'Malta',74.2,25.7,0,8.1709999999999994,4.7,7,202.9,17.2,11.3,26.7,36.299999999999997,12,13,5,19.600000000000009,4.0999999999999943,14.9,22,2,0.1,0.1,14.86,25.695,7.8,75.900000000000006,16.2,0.9,50.2,32,10.9,66.8,26.840999999999998,19.367399999999996,21.594999999999999,17.131399999999999,0.92879999999999996,2.4273000000000002,7.6,13.6,8.6,2.2000000000000002,8.9,20.8,5.5,33.9,10.5,50,56,73.8,0.8488769797101
'Netherlands',74.8,12.7,0.1,16.66,2.6,4,192.89,7.5,21.8,34.799999999999997,64.099999999999994,12.8,14.7,1.7000000000000028,8.1000000000000085,4.5999999999999943,35.1,31.7,7,0.1,0.1,99.5,7.0810000000000004,3,80.900000000000006,20.7,1,48.9,48,14.9,75.099999999999994,26.840999999999998,52.525199999999998,29.995000000000001,37.666199999999996,9.6320000000000003E-2,15.1776,14.7,16.3,4.3,2,56.9,41,11.6,14.9,10.8,81.2,71,86.3,0.902891924192396
'Austria',71.3,15,0.2,16.974,2.1,3.5,233.13,7.8,15.7,31.1,59.9,22.8,20.399999999999999,0,8.7999999999999972,1.5,38.9,23,9,0.2,0.5,99.78,33.798000000000002,1.8,77.099999999999994,18.7,1.1000000000000001,45,43,21,43.6,16.606000000000002,48.0974,57.61,42.2136,0.57017999999999991,23.928900000000002,9.4,8.4,7.1,1.6,58.2,46,9.1999999999999993,10.5,46.4,69.7,83,50.2,0.903826864445485
'Poland',59.9,16.899999999999999,0.9,4.1890000000000001,2.7,4.4000000000000004,351.38,5.2,21.2,28.2,25.5,20.9,8.5,10.8,14.199999999999996,5.7999999999999972,27.9,30.4,3,2.1,1.7,74,15.981999999999999,4.2,70.599999999999994,13.3,0.7,37.5,29,27,46.1,10.212,9.4301999999999992,0,5.3196000000000003,1.0509200000000001,3.7479,10.8,4.4000000000000004,8.1,1.1000000000000001,34.1,39.1,11,13.8,36.1,40.4,39,40.5,0.794361744895959
'Portugal',50.1,15.7,1.4,26.901,2,3.7,222.07,10.6,15.2,23.8,46.1,20.5,8.9,8.8000000000000007,6,10.100000000000001,40.4,29.4,5,0.8,0.7,84.64,41.646000000000001,18.899999999999999,75.5,17.600000000000001,2.8,40,42,17.3,67.099999999999994,29.394000000000002,59.825999999999993,53.13,55.827200000000005,0.98470000000000002,9.7650000000000006,24.4,6.7,8,1.7,28.9,43.5,7,13.5,50,41,42,61.4,0.811213671615053
'Romania',71.2,10.4,3.5,7.6470000000000002,3.4,7,512.64,15.3,4.0999999999999996,16,7,15.9,2.2000000000000002,2.5,17.799999999999997,9.1000000000000085,19.8,11.8,4,22.8,24.2,48.1,25.739000000000001,9.3000000000000007,68.599999999999994,4.8,1.7,29,23,24.1,49.2,1.2879999999999998,0,0,0,0,0.58590000000000009,9.4,9.6,14.7,1.1000000000000001,11.5,25,6,13.5,35.4,11.7,40,56.4,0.775934609424452
'Slovenia',66.7,16.2,0,6.7750000000000004,1.2,2.1,265.42,4.5999999999999996,17.3,29.3,46.1,20.7,9.3000000000000007,11.799999999999997,6.2000000000000028,6,22.1,33.299999999999997,1,0.1,0.1,68.900000000000006,31.164000000000001,2.2999999999999998,75.2,13.9,1.9,46,33,27.2,44,29.394000000000002,23.66,23.274999999999999,19.819800000000001,0.72239999999999993,12.573599999999999,20.6,8,7,1.6,59.2,33.6,8.5,16.2,62.5,53,39,45,0.869968098922263
'Slovakia',65.2,14.4,0.6,4.28,2.9,5.8,412.43,8.3000000000000007,12.8,23.1,46.1,13.9,19.8,7.6999999999999993,12.000000000000007,8,20.7,26.1,0,1.4,1.8,65.7,19.696000000000002,7.8,72.7,12,3.4,46,31,28.3,37,16.606000000000002,15.480399999999998,13.02,11.869000000000002,0.77314000000000005,8.0073000000000008,5.7,5.6,10.3,1.2,38.5,45.8,8,9.5,48.6,59,28,36.799999999999997,0.813928228983633
'Finland',68.5,20.6,0.1,12.477,1.4,2.4,236.57,7.3,21,38.5,54.1,23.8,17.100000000000001,12.600000000000001,2.2999999999999972,1.2000000000000028,46.5,39,3,0.3,0.3,85,57.487000000000002,1.8,78.3,24,1.2,50.9,43,21,63.9,40.893999999999998,59.825999999999993,49.384999999999998,55.827200000000005,0.7611,23.054700000000004,4.0999999999999996,6.4,8.1999999999999993,1.9,43.5,49.2,10.7,9.4,70.099999999999994,87.3,83,31.7,0.912864760988491
'Sweden',76,14,0,6.3740000000000006,1.4,2.6,184.63,6.5,19.399999999999999,37.799999999999997,63.8,14.9,12.1,13.100000000000001,3.3999999999999915,5.7000000000000028,47.6,43.3,3,0.1,0,95,66.119,1.9,82.9,23.3,0.9,58.2,37,18.100000000000001,76.7,34.5,39.545999999999992,36.924999999999997,35.549799999999998,0.79292000000000007,13.745400000000002,7,13,5.5,1.8,46.6,45.4,5.4,6.6,66.599999999999994,86,79,71.900000000000006,0.917189072157484
