@relation fact
@attribute cap.diameter numeric
@attribute habitat {'d','g','h','l','m','p','u','w'}
@attribute class {'e','p'}
@data
15.26,'d','p'
16.6,'d','p'
14.07,'d','p'
14.17,'d','p'
14.64,'d','p'
15.34,'d','p'
14.85,'d','p'
14.86,'d','p'
12.85,'d','p'
13.55,'d','p'
14.17,'d','p'
13.4,'d','p'
17.37,'d','p'
16.56,'d','p'
15.37,'d','p'
15.54,'d','p'
15.19,'d','p'
17.4,'d','p'
16.16,'d','p'
16.93,'d','p'
13,'d','p'
13.06,'d','p'
17.23,'d','p'
14.39,'d','p'
15.56,'d','p'
13.2,'d','p'
13.9,'d','p'
16.38,'d','p'
13.3,'d','p'
15.95,'d','p'
16.58,'d','p'
14.1,'d','p'
13.81,'d','p'
14.67,'d','p'
14.23,'d','p'
14.78,'d','p'
15.08,'d','p'
16,'d','p'
14.76,'d','p'
14.89,'d','p'
13.05,'d','p'
13.03,'d','p'
14.07,'d','p'
15.09,'d','p'
12.22,'d','p'
15.12,'d','p'
18.04,'d','p'
12.27,'d','p'
16.03,'d','p'
16.51,'d','p'
14.96,'d','p'
15.9,'d','p'
15.48,'d','p'
15.63,'d','p'
14.8,'d','p'
16,'d','p'
15.07,'d','p'
13.12,'d','p'
13.82,'d','p'
17.23,'d','p'
12.57,'d','p'
14.85,'d','p'
12.55,'d','p'
13.53,'d','p'
16.84,'d','p'
15.73,'d','p'
11.46,'d','p'
15.06,'d','p'
16.15,'d','p'
13.78,'d','p'
16.77,'d','p'
17.32,'d','p'
18.65,'d','p'
14.11,'d','p'
16.25,'d','p'
13.59,'d','p'
17.3,'d','p'
12.13,'d','p'
12.29,'d','p'
14.74,'d','p'
15.13,'d','p'
13.66,'d','p'
13.3,'d','p'
14.16,'d','p'
16.66,'d','p'
15.55,'d','p'
14.28,'d','p'
16.92,'d','p'
15.55,'d','p'
15.08,'d','p'
12.02,'d','p'
13.69,'d','p'
15.36,'d','p'
15.22,'d','p'
15.49,'d','p'
12.16,'d','p'
16.04,'d','p'
16.31,'d','p'
15.35,'d','p'
11.17,'d','p'
13.74,'d','p'
14.62,'d','p'
13.14,'d','p'
15.53,'d','p'
17.08,'d','p'
17.09,'d','p'
15.31,'d','p'
16.11,'d','p'
14.96,'d','p'
16.12,'d','p'
14.19,'d','p'
15.67,'d','p'
11.35,'d','p'
14.52,'d','p'
14.41,'d','p'
16.3,'d','p'
13.36,'d','p'
14.29,'d','p'
12.29,'d','p'
13.66,'d','p'
14.51,'d','p'
14.55,'d','p'
14.97,'d','p'
13.06,'d','p'
12.85,'d','p'
14,'d','p'
13.93,'d','p'
17.91,'d','p'
14.43,'d','p'
13.43,'d','p'
13.04,'d','p'
17.1,'d','p'
15.07,'d','p'
15.03,'d','p'
16.37,'d','p'
11.02,'d','p'
17.61,'d','p'
17.54,'d','p'
16.77,'d','p'
16.21,'d','p'
14.94,'d','p'
14.74,'d','p'
15.97,'d','p'
13.56,'d','p'
15.13,'d','p'
15.42,'d','p'
13.49,'d','p'
15.71,'d','p'
14.96,'d','p'
15.34,'d','p'
12.26,'d','p'
13.46,'d','p'
16.59,'d','p'
14.98,'d','p'
13.7,'d','p'
14.92,'d','p'
12,'d','p'
14.75,'d','p'
16.6,'d','p'
11.77,'d','p'
16.37,'d','p'
13.89,'d','p'
11.71,'d','p'
15.5,'d','p'
15.93,'d','p'
17.73,'d','p'
17.23,'d','p'
16.76,'d','p'
14.14,'d','p'
12.86,'d','p'
16.79,'d','p'
14.18,'d','p'
13.56,'d','p'
14.32,'d','p'
13.64,'d','p'
13.49,'d','p'
14.7,'d','p'
13.33,'d','p'
12.87,'d','p'
14.36,'d','p'
14.39,'d','p'
14.17,'d','p'
16.4,'d','p'
12.31,'d','p'
14.77,'d','p'
15.02,'d','p'
13.9,'d','p'
17.13,'d','p'
13.68,'d','p'
15,'d','p'
13.5,'d','p'
13.94,'d','p'
14.62,'d','p'
13.76,'d','p'
16.71,'d','p'
15.5,'d','p'
14.77,'d','p'
18.14,'d','p'
15.78,'d','p'
17.25,'d','p'
16.58,'d','p'
13.06,'d','p'
15.48,'d','p'
16.1,'d','p'
15.57,'d','p'
15.02,'d','p'
14.13,'d','p'
16.03,'d','p'
13.82,'d','p'
15.89,'d','p'
15,'d','p'
17.22,'d','p'
16.76,'d','p'
16.97,'d','p'
17.87,'d','p'
12.96,'d','p'
15.59,'d','p'
14.37,'d','p'
14.8,'d','p'
13.42,'d','p'
13.44,'d','p'
15.64,'d','p'
15.16,'d','p'
14.24,'d','p'
13.27,'d','p'
14.33,'d','p'
18.59,'d','p'
16.92,'d','p'
14.63,'d','p'
14.71,'d','p'
14.84,'d','p'
14.1,'d','p'
11.69,'d','p'
13.63,'d','p'
15.29,'d','p'
15.57,'d','p'
17.58,'d','p'
15.4,'d','p'
13.64,'d','p'
17.25,'d','p'
17.84,'d','p'
15.48,'d','p'
14.57,'d','p'
14.45,'d','p'
15.79,'d','p'
17.38,'d','p'
14.91,'d','p'
16.98,'d','p'
13.73,'d','p'
14.99,'d','p'
15.01,'d','p'
15.84,'d','p'
16.62,'d','p'
11.29,'d','p'
13.95,'d','p'
14.27,'d','p'
17.38,'d','p'
13.05,'d','p'
14.45,'d','p'
15.88,'d','p'
15.28,'d','p'
14.68,'d','p'
14.39,'d','p'
16.16,'d','p'
15.47,'d','p'
14.05,'d','p'
15.02,'d','p'
17.17,'d','p'
15.01,'d','p'
16.22,'d','p'
14.94,'d','p'
13.22,'d','p'
13.66,'d','p'
18.31,'d','p'
11.68,'d','p'
13.45,'d','p'
14.42,'d','p'
15.6,'d','p'
10.58,'d','p'
17.58,'d','p'
15.6,'d','p'
16.68,'d','p'
15.66,'d','p'
12.18,'d','p'
15.71,'d','p'
14.73,'d','p'
12.42,'d','p'
18.68,'d','p'
16.82,'d','p'
15.35,'d','p'
14.34,'d','p'
13.99,'d','p'
16.46,'d','p'
15.72,'d','p'
15.73,'d','p'
14.81,'d','p'
16.51,'d','p'
14.05,'d','p'
13.23,'d','p'
13.68,'d','p'
15.42,'d','p'
15.37,'d','p'
17.31,'d','p'
14.84,'d','p'
13.95,'d','p'
13.43,'d','p'
16.39,'d','p'
11.7,'d','p'
12.6,'d','p'
16.16,'d','p'
12.67,'d','p'
15.52,'d','p'
15.26,'d','p'
16.2,'d','p'
16.82,'d','p'
15.27,'d','p'
12.1,'d','p'
14.28,'d','p'
15.03,'d','p'
18.1,'d','p'
16.69,'d','p'
11.3,'d','p'
14.66,'d','p'
13.99,'d','p'
13.62,'d','p'
14.49,'d','p'
14.16,'d','p'
18.89,'d','p'
13.03,'d','p'
12.8,'d','p'
13.7,'d','p'
14.42,'d','p'
14.45,'d','p'
16.11,'d','p'
15.61,'d','p'
14.93,'d','p'
15.58,'d','p'
15.98,'d','p'
15.62,'d','p'
16.79,'d','p'
13.6,'d','p'
15.3,'d','p'
16.08,'d','p'
13.43,'d','p'
16.24,'d','p'
16.78,'d','p'
16.26,'d','p'
12.59,'d','p'
16.68,'d','p'
14.89,'d','p'
14.72,'d','p'
13.59,'d','p'
16.07,'d','p'
6.87,'d','p'
8.59,'d','p'
5.95,'d','p'
6.51,'d','p'
7.66,'d','p'
6.4,'d','p'
7.06,'d','p'
6.32,'d','p'
8.8,'d','p'
7.5,'d','p'
6.44,'d','p'
6.64,'d','p'
6.93,'d','p'
8.23,'d','p'
7.37,'d','p'
8.49,'d','p'
7.05,'d','p'
5.92,'d','p'
8.91,'d','p'
8.71,'d','p'
8.79,'d','p'
7.09,'d','p'
8.08,'d','p'
7.63,'d','p'
6.39,'d','p'
6.86,'d','p'
8.85,'d','p'
7.73,'d','p'
5.84,'d','p'
6.5,'d','p'
6.58,'d','p'
7.2,'d','p'
5.55,'d','p'
6.63,'d','p'
6.83,'d','p'
6.3,'d','p'
8.82,'d','p'
7.33,'d','p'
8.5,'d','p'
8.07,'d','p'
6.85,'d','p'
7.44,'d','p'
7.19,'d','p'
7.07,'d','p'
7.81,'d','p'
6.08,'d','p'
8.01,'d','p'
7.5,'d','p'
8.47,'d','p'
6.36,'d','p'
7.53,'d','p'
7.62,'d','p'
6.18,'d','p'
6.67,'d','p'
5.61,'d','p'
8.08,'d','p'
6.37,'d','p'
6.25,'d','p'
6.8,'d','p'
6.71,'d','p'
8.38,'d','p'
6.52,'d','p'
5.73,'d','p'
8.03,'d','p'
8.25,'d','p'
9,'d','p'
7.97,'d','p'
7.45,'d','p'
6.27,'d','p'
7.38,'d','p'
7.02,'d','p'
6.9,'d','p'
7.22,'d','p'
7.67,'d','p'
7.83,'d','p'
6.11,'d','p'
7.81,'d','p'
6.59,'d','p'
6.59,'d','p'
8.66,'d','p'
7.9,'d','p'
6.69,'d','p'
7.58,'d','p'
7.22,'d','p'
7.37,'d','p'
7.76,'d','p'
6.84,'d','p'
7.7,'d','p'
9.14,'d','p'
7.94,'d','p'
6.37,'d','p'
7.25,'d','p'
8.28,'d','p'
7.18,'d','p'
5.5,'d','p'
7,'d','p'
6.4,'d','p'
8.54,'d','p'
8.18,'d','p'
8.41,'d','p'
7.43,'d','p'
7.59,'d','p'
7.52,'d','p'
8.1,'d','p'
6.87,'d','p'
6.91,'d','p'
8,'d','p'
8.48,'d','p'
7.47,'d','p'
7.72,'d','p'
6.29,'d','p'
7.24,'d','p'
8.2,'d','p'
8.59,'d','p'
7.43,'d','p'
7.86,'d','p'
9.89,'d','p'
8.61,'d','p'
7.17,'d','p'
7.08,'d','p'
6.57,'d','p'
7.7,'d','p'
7.21,'d','p'
7.83,'d','p'
7.53,'d','p'
7.93,'d','p'
7.93,'d','p'
8.7,'d','p'
7.09,'d','p'
8.35,'d','p'
6.15,'d','p'
6.06,'d','p'
7.69,'d','p'
6.92,'d','p'
7.67,'d','p'
6.79,'d','p'
6.83,'d','p'
6.38,'d','p'
6.93,'d','p'
7.71,'d','p'
8.43,'d','p'
7.25,'d','p'
7.7,'d','p'
7.83,'d','p'
7.75,'d','p'
8.94,'d','p'
6.34,'d','p'
5.85,'d','p'
7.54,'d','p'
6.96,'d','p'
8,'d','p'
8.76,'d','p'
7.42,'d','p'
6.71,'d','p'
7.13,'d','p'
8.33,'d','p'
7.24,'d','p'
8.7,'d','p'
7.66,'d','p'
8.14,'d','p'
7.42,'d','p'
8.01,'d','p'
7.71,'d','p'
7.94,'d','p'
8.53,'d','p'
7.82,'d','p'
7.18,'d','p'
6.91,'d','p'
7.69,'d','p'
7.39,'d','p'
8.05,'d','p'
6.26,'d','p'
7.17,'d','p'
7.52,'d','p'
7.56,'d','p'
8.43,'d','p'
6.43,'d','p'
7.97,'d','p'
8.54,'d','p'
6.05,'d','p'
8.84,'d','p'
6.29,'d','p'
9.15,'d','p'
6.59,'d','p'
7.38,'d','p'
7.61,'d','p'
9.06,'d','p'
7.31,'d','p'
8.19,'d','p'
7.86,'d','p'
8.03,'d','p'
8.38,'d','p'
6.44,'d','p'
7.33,'d','p'
7.97,'d','p'
7.13,'d','p'
7.02,'d','p'
8.6,'d','p'
8.22,'d','p'
6.49,'d','p'
6.88,'d','p'
7.77,'d','p'
7.7,'d','p'
6.14,'d','p'
8.26,'d','p'
8.88,'d','p'
6.77,'d','p'
7.86,'d','p'
7.21,'d','p'
7.92,'d','p'
8.04,'d','p'
7.78,'d','p'
8.11,'d','p'
8.84,'d','p'
7.24,'d','p'
8.61,'d','p'
7.69,'d','p'
8.14,'d','p'
6.06,'d','p'
5.68,'d','p'
8.2,'d','p'
8.62,'d','p'
6.63,'d','p'
7.72,'d','p'
6.24,'d','p'
7.79,'d','p'
8.21,'d','p'
7.08,'d','p'
8.44,'d','p'
7.29,'d','p'
9.1,'d','p'
7.54,'d','p'
8.28,'d','p'
7.37,'d','p'
8.23,'d','p'
8.45,'d','p'
8.31,'d','p'
7.03,'d','p'
8.49,'d','p'
6.64,'d','p'
8.87,'d','p'
6.58,'d','p'
6.8,'d','p'
7.59,'d','p'
7.42,'d','p'
8.63,'d','p'
8.05,'d','p'
7.31,'d','p'
9.3,'d','p'
8.19,'d','p'
7.74,'d','p'
7.55,'d','p'
8.27,'d','p'
5.81,'d','p'
7.03,'d','p'
6.88,'d','p'
7.19,'d','p'
8.01,'d','p'
7.65,'d','p'
6.28,'d','p'
7.42,'d','p'
6.44,'d','p'
8.36,'d','p'
7.53,'d','p'
7.64,'d','p'
7.36,'d','p'
6.32,'d','p'
7.77,'d','p'
5.18,'d','p'
6.99,'d','p'
7.75,'d','p'
7.65,'d','p'
6.87,'d','p'
8.44,'d','p'
7.81,'d','p'
7.68,'d','p'
8.57,'d','p'
7.25,'d','p'
8.34,'d','p'
7.06,'d','p'
5.94,'d','p'
8.89,'d','p'
7.62,'d','p'
8.08,'d','p'
8.05,'d','p'
6.43,'d','p'
6.99,'d','p'
6.66,'d','p'
7.37,'d','p'
6.46,'d','p'
6.68,'d','p'
6.15,'d','p'
8.8,'d','p'
7.8,'d','p'
7.51,'d','p'
6.4,'d','p'
7.64,'d','p'
6.69,'d','p'
8.64,'d','p'
6.74,'d','p'
6.23,'d','p'
6.38,'d','p'
8.36,'d','p'
7.99,'d','p'
8.28,'d','p'
7.98,'d','p'
6.14,'d','p'
7.02,'d','p'
7.66,'d','p'
6.91,'d','p'
8.63,'d','p'
7.96,'d','p'
7.75,'d','p'
9.14,'d','p'
6.21,'d','p'
7.85,'d','p'
7.52,'d','p'
8.29,'d','p'
7.33,'d','p'
7.43,'d','p'
8.26,'d','p'
8.46,'d','p'
8.33,'d','p'
7.07,'d','p'
8.41,'d','p'
6.6,'d','p'
7.93,'d','p'
7.85,'d','p'
6.32,'d','p'
7.51,'d','p'
6.97,'d','p'
7.1,'d','p'
8.43,'d','p'
6.15,'d','p'
9.98,'d','p'
7.48,'d','p'
7.93,'d','p'
5.6,'d','p'
7.11,'d','p'
8.66,'d','p'
8.08,'d','p'
7.76,'d','p'
6.41,'d','p'
8.46,'d','p'
7.39,'d','p'
7.47,'d','p'
7.62,'d','p'
9.23,'d','p'
8.12,'d','p'
7.9,'d','p'
8.36,'d','p'
6.64,'d','p'
7.57,'d','p'
11.82,'d','p'
11.96,'d','p'
10.47,'d','p'
11.94,'d','p'
13.15,'d','p'
11.99,'d','p'
11.44,'d','p'
11.84,'d','p'
12.26,'d','p'
13.34,'d','p'
12.42,'d','p'
12.48,'d','p'
12.68,'d','p'
13.92,'d','p'
12.37,'d','p'
13.21,'d','p'
11.17,'d','p'
11.71,'d','p'
12.69,'d','p'
13.31,'d','p'
11.78,'d','p'
12.74,'d','p'
11.6,'d','p'
12.27,'d','p'
11.49,'d','p'
13.31,'d','p'
12.32,'d','p'
11.23,'d','p'
13.02,'d','p'
12.33,'d','p'
13.21,'d','p'
12.48,'d','p'
12.62,'d','p'
12.59,'d','p'
12.32,'d','p'
12.79,'d','p'
13.55,'d','p'
12.5,'d','p'
12.16,'d','p'
13.57,'d','p'
12.43,'d','p'
12.44,'d','p'
11.39,'d','p'
13.9,'d','p'
12.75,'d','p'
13.05,'d','p'
12.13,'d','p'
11.09,'d','p'
12.02,'d','p'
10.76,'d','p'
12.14,'d','p'
12.56,'d','p'
12.23,'d','p'
12.32,'d','p'
12.72,'d','p'
11.61,'d','p'
13.13,'d','p'
12.96,'d','p'
11.93,'d','p'
11.41,'d','p'
11.06,'d','p'
10.88,'d','p'
11.19,'d','p'
12.38,'d','p'
12.28,'d','p'
12.96,'d','p'
13.22,'d','p'
13.46,'d','p'
13.17,'d','p'
12.41,'d','p'
12.1,'d','p'
10.3,'d','p'
12.17,'d','p'
12.72,'d','p'
13.51,'d','p'
11.29,'d','p'
12.4,'d','p'
14.55,'d','p'
12.41,'d','p'
12.22,'d','p'
13.14,'d','p'
12.25,'d','p'
12.54,'d','p'
12.3,'d','p'
11.87,'d','p'
13.61,'d','p'
11.14,'d','p'
12.23,'d','p'
13.24,'d','p'
13.26,'d','p'
11.91,'d','p'
13.65,'d','p'
12.25,'d','p'
12.42,'d','p'
12.06,'d','p'
12.61,'d','p'
12.7,'d','p'
13.5,'d','p'
11.8,'d','p'
12.68,'d','p'
14.02,'d','p'
11.35,'d','p'
12.08,'d','p'
13.61,'d','p'
11.86,'d','p'
12.38,'d','p'
13.05,'d','p'
12.07,'d','p'
14.08,'d','p'
12.49,'d','p'
13.39,'d','p'
12.35,'d','p'
12.44,'d','p'
12.95,'d','p'
11.9,'d','p'
13.7,'d','p'
13.92,'d','p'
13.35,'d','p'
11.12,'d','p'
13.17,'d','p'
11.21,'d','p'
13.78,'d','p'
11.95,'d','p'
12.24,'d','p'
12.02,'d','p'
12.39,'d','p'
13.25,'d','p'
11.35,'d','p'
11.73,'d','p'
12.89,'d','p'
11.67,'d','p'
13.72,'d','p'
14.1,'d','p'
13.04,'d','p'
11.88,'d','p'
12.04,'d','p'
12.33,'d','p'
12.87,'d','p'
12.61,'d','p'
10.72,'d','p'
12.61,'d','p'
12.21,'d','p'
11.9,'d','p'
13,'d','p'
12.92,'d','p'
11.1,'d','p'
12.98,'d','p'
11.26,'d','p'
13.35,'d','p'
10.59,'d','p'
12.95,'d','p'
12.83,'d','p'
12.69,'d','p'
12.52,'d','p'
12.28,'d','p'
12.56,'d','p'
13.32,'d','p'
13.68,'d','p'
13.73,'d','p'
12.27,'d','p'
12,'d','p'
11.91,'d','p'
13.91,'d','p'
12.57,'d','p'
11.64,'d','p'
13.03,'d','p'
11,'d','p'
11.37,'d','p'
12.66,'d','p'
10.89,'d','p'
12.38,'d','p'
12.32,'d','p'
12.03,'d','p'
12.79,'d','p'
11.88,'d','p'
13.57,'d','p'
11.51,'d','p'
11.85,'d','p'
11.68,'d','p'
12.05,'d','p'
12.83,'d','p'
12.76,'d','p'
13.47,'d','p'
12.24,'d','p'
12.4,'d','p'
13.37,'d','p'
12.5,'d','p'
12.88,'d','p'
10.8,'d','p'
13.17,'d','p'
13.76,'d','p'
12.29,'d','p'
12.25,'d','p'
13.41,'d','p'
12.98,'d','p'
11.92,'d','p'
13.26,'d','p'
13.5,'d','p'
12.54,'d','p'
12.99,'d','p'
13.55,'d','p'
12.52,'d','p'
11.97,'d','p'
11.24,'d','p'
13.55,'d','p'
11.07,'d','p'
11.65,'d','p'
12.71,'d','p'
13.4,'d','p'
13.54,'d','p'
12.02,'d','p'
11.89,'d','p'
13.55,'d','p'
13.55,'d','p'
11.79,'d','p'
11.88,'d','p'
13.35,'d','p'
12.53,'d','p'
10.43,'d','p'
11.98,'d','p'
13.16,'d','p'
12.64,'d','p'
10.79,'d','p'
13.1,'d','p'
11,'d','p'
13.2,'d','p'
12.72,'d','p'
12.31,'d','p'
13.26,'d','p'
13.14,'d','p'
11.96,'d','p'
12.4,'d','p'
11.38,'d','p'
11.34,'d','p'
13.79,'d','p'
12.86,'d','p'
11.9,'d','p'
12.98,'d','p'
12.68,'d','p'
11.91,'d','p'
11.83,'d','p'
12.09,'d','p'
11.99,'d','p'
12.21,'d','p'
12.14,'d','p'
12,'d','p'
12.7,'d','p'
12.12,'d','p'
12.2,'d','p'
13.19,'d','p'
13.52,'d','p'
12.67,'d','p'
11.32,'d','p'
12.83,'d','p'
13.14,'d','p'
12.27,'d','p'
13.01,'d','p'
12.03,'d','p'
12.98,'d','p'
13.71,'d','p'
13.42,'d','p'
12.62,'d','p'
11.09,'d','p'
13.12,'d','p'
13,'d','p'
11.92,'d','p'
13.93,'d','p'
11.68,'d','p'
13.12,'d','p'
12.07,'d','p'
11.32,'d','p'
12.06,'d','p'
12.42,'d','p'
12.3,'d','p'
13.17,'d','p'
11.4,'d','p'
12.51,'d','p'
10.39,'d','p'
12.05,'d','p'
12.02,'d','p'
10.5,'d','p'
13.07,'d','p'
11.88,'d','p'
11.47,'d','p'
11.76,'d','p'
11.85,'d','p'
12.39,'d','p'
12.84,'d','p'
13.59,'d','p'
13.22,'d','p'
12.74,'d','p'
13.59,'d','p'
10.76,'d','p'
13.4,'d','p'
12.32,'d','p'
13.3,'d','p'
11.77,'d','p'
11.27,'d','p'
12.12,'d','p'
13.1,'d','p'
13.09,'d','p'
10.96,'d','p'
13.29,'d','p'
11.95,'d','p'
12.05,'d','p'
12.79,'d','p'
12.48,'d','p'
11.38,'d','p'
12.82,'d','p'
10.81,'d','p'
12.54,'d','p'
11.14,'d','p'
12.5,'d','p'
11.37,'d','p'
12.33,'d','p'
14.13,'d','p'
12.24,'d','p'
11.09,'d','p'
12.62,'d','p'
12.25,'d','p'
13.31,'d','p'
12.49,'d','p'
13.61,'d','p'
13.86,'d','p'
12.85,'d','p'
13.28,'d','p'
11.72,'d','p'
12.66,'d','p'
12.52,'d','p'
11.98,'d','p'
11.73,'d','p'
12.96,'d','p'
13.06,'d','p'
11.75,'d','p'
13.26,'d','p'
10.51,'d','p'
12.94,'d','p'
13.33,'d','p'
13.46,'d','p'
13.43,'d','p'
13.5,'d','p'
13.1,'d','p'
12,'d','p'
11.15,'d','p'
11.78,'d','p'
12.1,'d','p'
13.6,'d','p'
12.5,'d','p'
11.38,'d','p'
13.92,'d','p'
11.26,'d','p'
12.54,'d','p'
10.95,'d','p'
10.42,'d','e'
9.59,'d','e'
9.1,'d','e'
8.86,'d','e'
9.59,'d','e'
8.4,'d','e'
10.5,'d','e'
7.68,'d','e'
7.3,'d','e'
9.03,'d','e'
9.1,'d','e'
8.84,'d','e'
10.55,'d','e'
9.4,'d','e'
9.3,'d','e'
10.24,'d','e'
11.55,'d','e'
11.31,'d','e'
8.58,'d','e'
7.82,'d','e'
7.17,'d','e'
5.49,'d','e'
8.92,'d','e'
10.15,'d','e'
12.56,'d','e'
8.12,'d','e'
10.09,'d','e'
9.99,'d','e'
10.82,'d','e'
10.96,'d','e'
9.25,'d','e'
10.5,'d','e'
10.62,'d','e'
11.53,'d','e'
8.28,'d','e'
9.21,'d','e'
10.47,'d','e'
9.59,'d','e'
10.1,'d','e'
9.67,'d','e'
11.34,'d','e'
11.68,'d','e'
11.55,'d','e'
7.51,'d','e'
9.2,'d','e'
12.59,'d','e'
12.09,'d','e'
7.02,'d','e'
9.39,'d','e'
7.78,'d','e'
9.13,'d','e'
12.09,'d','e'
11.57,'d','e'
10.91,'d','e'
10.27,'d','e'
9.62,'d','e'
12.8,'d','e'
13.1,'d','e'
10.19,'d','e'
10.14,'d','e'
7.01,'d','e'
6.76,'d','e'
6.93,'d','e'
9.17,'d','e'
11.17,'d','e'
11.05,'d','e'
8.67,'d','e'
6.54,'d','e'
12.99,'d','e'
10.17,'d','e'
8.58,'d','e'
10.65,'d','e'
10.75,'d','e'
10.72,'d','e'
10.3,'d','e'
9.21,'d','e'
6.82,'d','e'
9.36,'d','e'
8.05,'d','e'
8.39,'d','e'
7.64,'d','e'
10.5,'d','e'
8.43,'d','e'
9.35,'d','e'
9.61,'d','e'
12.34,'d','e'
8.2,'d','e'
10.01,'d','e'
11.4,'d','e'
9.11,'d','e'
10.85,'d','e'
9.8,'d','e'
7.83,'d','e'
9.92,'d','e'
8.75,'d','e'
7.8,'d','e'
10.24,'d','e'
10.48,'d','e'
9.7,'d','e'
6.9,'d','e'
10.01,'d','e'
7.46,'d','e'
8.08,'d','e'
8.62,'d','e'
8.06,'d','e'
8.69,'d','e'
9.25,'d','e'
8.75,'d','e'
11.52,'d','e'
15.07,'d','e'
12.23,'d','e'
11.9,'d','e'
11.37,'d','e'
7.05,'d','e'
11.41,'d','e'
5.6,'d','e'
6.95,'d','e'
12.44,'d','e'
8.19,'d','e'
11.65,'d','e'
12.47,'d','e'
12.69,'d','e'
10.26,'d','e'
9.22,'d','e'
8.68,'d','e'
9.55,'d','e'
10.75,'d','e'
9.95,'d','e'
10.29,'d','e'
10.12,'d','e'
9.08,'d','e'
11.85,'d','e'
9.31,'d','e'
11.2,'d','e'
9.57,'d','e'
10.95,'d','e'
8.58,'d','e'
9.17,'d','e'
10.2,'d','e'
7.84,'d','e'
8.84,'d','e'
9.93,'d','e'
7.87,'d','e'
13.21,'d','e'
8.74,'d','e'
7.86,'d','e'
12.83,'d','e'
9.88,'d','e'
10.44,'d','e'
9.97,'d','e'
5.57,'d','e'
7.55,'d','e'
10.97,'d','e'
8.9,'d','e'
10.76,'d','e'
8.82,'d','e'
8.21,'d','e'
9.68,'d','e'
9.45,'d','e'
10.21,'d','e'
9.11,'d','e'
8.34,'d','e'
11.29,'d','e'
8.01,'d','e'
10.87,'d','e'
12.08,'d','e'
11.38,'d','e'
7.05,'d','e'
8.28,'d','e'
7.67,'d','e'
10.03,'d','e'
11.14,'d','e'
9,'d','e'
11.49,'d','e'
8.43,'d','e'
11.58,'d','e'
12.02,'d','e'
12.49,'d','e'
10.05,'d','e'
9.35,'d','e'
8.71,'d','e'
11.27,'d','e'
8.02,'d','e'
7.49,'d','e'
7.61,'d','e'
9.94,'d','e'
10.23,'d','e'
10.19,'d','e'
9.52,'d','e'
10.18,'d','e'
11.53,'d','e'
9.67,'d','e'
7.65,'d','e'
8.65,'d','e'
7.93,'d','e'
9.92,'d','e'
11.29,'d','e'
12.55,'d','e'
10.62,'d','e'
12.29,'d','e'
9.29,'d','e'
10.12,'d','e'
7.42,'d','e'
12.27,'d','e'
12.45,'d','e'
9.88,'d','e'
9.41,'d','e'
9.82,'d','e'
11.91,'d','e'
6.47,'d','e'
10.03,'d','e'
10.98,'d','e'
9.91,'d','e'
10.52,'d','e'
10.9,'d','e'
11.76,'d','e'
10.13,'d','e'
6.19,'d','e'
11.69,'d','e'
10.76,'d','e'
10.59,'d','e'
12.9,'d','e'
13.24,'d','e'
9.4,'d','e'
10.96,'d','e'
12.85,'d','e'
9.61,'d','e'
10.45,'d','e'
10.61,'d','e'
9.14,'d','e'
10.44,'d','e'
10.35,'d','e'
7.03,'d','e'
11.85,'d','e'
7.48,'d','e'
12.06,'d','e'
9.45,'d','e'
7.36,'d','e'
6.79,'d','e'
10.08,'d','e'
11.42,'d','e'
11.77,'d','e'
12.37,'d','e'
10.95,'d','e'
12.59,'d','e'
9.78,'d','e'
9.86,'d','e'
10.72,'d','e'
13.76,'d','e'
11.64,'d','e'
13.24,'d','e'
10.22,'d','e'
5.87,'d','e'
10.46,'d','e'
10.65,'d','e'
9.47,'d','e'
8.36,'d','e'
9.34,'d','e'
9.64,'d','e'
13.64,'d','e'
9.98,'d','e'
9.38,'d','e'
10.96,'d','e'
12.32,'d','e'
9.98,'d','e'
10.28,'d','e'
6.71,'d','e'
11.52,'d','e'
7.47,'d','e'
10.18,'d','e'
11.62,'d','e'
9.5,'d','e'
10.29,'d','e'
8.21,'d','e'
10.1,'d','e'
9.29,'d','e'
12.17,'d','e'
8.2,'d','e'
8.8,'d','e'
12.2,'d','e'
9.98,'d','e'
11.2,'d','e'
10.21,'d','e'
9.55,'d','e'
8.29,'d','e'
9.17,'d','e'
9.73,'d','e'
11.9,'d','e'
10.33,'d','e'
11.18,'d','e'
9.15,'d','e'
9.67,'d','e'
12.15,'d','e'
9.11,'d','e'
6.66,'d','e'
11.4,'d','e'
11.21,'d','e'
9.6,'d','e'
10.57,'d','e'
11.02,'d','e'
10.3,'d','e'
10.91,'d','e'
11.76,'d','e'
11.72,'d','e'
9.58,'d','e'
11.7,'d','e'
10.22,'d','e'
8.37,'d','e'
11.35,'d','e'
11.13,'d','e'
11.67,'d','e'
9.55,'d','e'
10.8,'d','e'
9.47,'d','e'
7.36,'d','e'
11.32,'d','e'
8.12,'d','e'
9.36,'d','e'
11.05,'d','e'
8.12,'d','e'
9.7,'d','e'
9.86,'d','e'
9.25,'d','e'
11.48,'d','e'
10.78,'d','e'
9.05,'d','e'
9.82,'d','e'
9.51,'d','e'
10.79,'d','e'
8.04,'d','e'
10.06,'d','e'
12.81,'d','e'
9.91,'d','e'
9.35,'d','e'
11.71,'d','e'
9.38,'d','e'
9.76,'d','e'
8.74,'d','e'
10.12,'d','e'
8.48,'d','e'
8.19,'d','e'
6.73,'d','e'
9.25,'d','e'
11,'d','e'
10.34,'d','e'
10.78,'d','e'
11.01,'d','e'
12.59,'d','e'
10.82,'d','e'
8.54,'d','e'
10.85,'d','e'
9.51,'d','e'
10.6,'d','e'
9.71,'d','p'
7.26,'d','p'
7.93,'d','p'
10.75,'d','p'
7.75,'d','p'
7.05,'d','p'
9.21,'d','p'
8.8,'d','p'
10.97,'d','p'
8.99,'d','p'
8.05,'d','p'
7.23,'d','p'
8.85,'d','p'
9.27,'d','p'
7.83,'d','p'
7.11,'d','p'
7.83,'d','p'
9.03,'d','p'
9.48,'d','p'
7.85,'d','p'
10.32,'d','p'
8.37,'d','p'
8.71,'d','p'
8.75,'d','p'
8.81,'d','p'
9,'d','p'
8.61,'d','p'
7.66,'d','p'
10.33,'d','p'
9.59,'d','p'
10.58,'d','p'
10.58,'d','p'
9.03,'d','p'
8.92,'d','p'
8.14,'d','p'
9.15,'d','p'
7.61,'d','p'
7.06,'d','p'
8.91,'d','p'
11.52,'d','p'
8.9,'d','p'
9.63,'d','p'
8.59,'d','p'
8.58,'d','p'
10.37,'d','p'
7.63,'d','p'
6.38,'d','p'
8.3,'d','p'
9.01,'d','p'
7.87,'d','p'
10.46,'d','p'
5.96,'d','p'
9.24,'d','p'
9.06,'d','p'
9.49,'d','p'
8.89,'d','p'
8.81,'d','p'
6.93,'d','p'
5.32,'d','p'
7.99,'d','p'
8.24,'d','p'
7.94,'d','p'
7.73,'d','p'
8.98,'d','p'
8.35,'d','p'
8.46,'d','p'
9.12,'d','p'
7.81,'d','p'
10.68,'d','p'
10.7,'d','p'
8.08,'d','p'
8.46,'d','p'
7.8,'d','p'
10.42,'d','p'
7.66,'d','p'
8.95,'d','p'
8.95,'d','p'
7.95,'d','p'
8.08,'d','p'
6.67,'d','p'
7.92,'d','p'
10.08,'d','p'
8.09,'d','p'
8.57,'d','p'
6.2,'d','p'
6.98,'d','p'
8.93,'d','p'
6.3,'d','p'
9.46,'d','p'
9.04,'d','p'
9.94,'d','p'
7.56,'d','p'
8.67,'d','p'
8.38,'d','p'
9.69,'d','p'
8.52,'d','p'
7.18,'d','p'
8.71,'d','p'
7.74,'d','p'
8.28,'d','p'
9.32,'d','p'
7.6,'d','p'
11.27,'d','p'
8.82,'d','p'
8.71,'d','p'
7.04,'d','p'
7.38,'d','p'
12.21,'d','p'
9.24,'d','p'
6.9,'d','p'
7.1,'d','p'
8.17,'d','p'
8.09,'d','p'
7.48,'d','p'
8.29,'d','p'
7.05,'d','p'
7.94,'d','p'
8.56,'d','p'
9.64,'d','p'
9.9,'d','p'
7.85,'d','p'
7.3,'d','p'
10.26,'d','p'
8.16,'d','p'
9.6,'d','p'
7.48,'d','p'
7.52,'d','p'
7.86,'d','p'
6.23,'d','p'
9.29,'d','p'
9.55,'d','p'
9.18,'d','p'
7.29,'d','p'
8.83,'d','p'
8.78,'d','p'
6.52,'d','p'
9.36,'d','p'
7.89,'d','p'
7.99,'d','p'
6.25,'d','p'
7.69,'d','p'
9.25,'d','p'
8.37,'d','p'
8.78,'d','p'
7.87,'d','p'
9.89,'d','p'
9.36,'d','p'
8.08,'d','p'
7.33,'d','p'
8.45,'d','p'
9.73,'d','p'
8.49,'d','p'
7.89,'d','p'
8.74,'d','p'
9.82,'d','p'
9.69,'d','p'
10.92,'d','p'
6.67,'d','p'
8.42,'d','p'
5.3,'d','p'
9.04,'d','p'
8.9,'d','p'
9.06,'d','p'
8.51,'d','p'
7.45,'d','p'
9.38,'d','p'
8.05,'d','p'
11.81,'d','p'
7.96,'d','p'
8.98,'d','p'
8.94,'d','p'
7.91,'d','p'
7.24,'d','p'
9.85,'d','p'
8.44,'d','p'
8.03,'d','p'
8.57,'d','p'
9.09,'d','p'
7.59,'d','p'
7.87,'d','p'
10.47,'d','p'
8.01,'d','p'
8.4,'d','p'
9.4,'d','p'
6.68,'d','p'
8.55,'d','p'
7.76,'d','p'
10.46,'d','p'
10.15,'d','p'
7.94,'d','p'
6.89,'d','p'
8.09,'d','p'
8.83,'d','p'
7.55,'d','p'
8.25,'d','p'
7.31,'d','p'
7.92,'d','p'
8.4,'d','p'
7.29,'d','p'
9.73,'d','p'
5.6,'d','p'
10.7,'d','p'
9.34,'d','p'
6.13,'d','p'
8.76,'d','p'
7.27,'d','p'
8.95,'d','p'
8.23,'d','p'
8.82,'d','p'
9.74,'d','p'
9.56,'d','p'
11.52,'d','p'
7.33,'d','p'
8.56,'d','p'
8.59,'d','p'
9.99,'d','p'
7.19,'d','p'
11.41,'d','p'
6.5,'d','p'
8.75,'d','p'
7.5,'d','p'
8.8,'d','p'
7.76,'d','p'
10.73,'d','p'
8.7,'d','p'
9.13,'d','p'
10.77,'d','p'
9.08,'d','p'
9.59,'d','p'
8.15,'d','p'
8.83,'d','p'
8.01,'d','p'
9.41,'d','p'
8.45,'d','p'
9.08,'d','p'
8.65,'d','p'
7.57,'d','p'
10.27,'d','p'
6.37,'d','p'
9.34,'d','p'
7.73,'d','p'
9.88,'d','p'
10.33,'d','p'
7.74,'d','p'
6.94,'d','p'
7.75,'d','p'
9.1,'d','p'
9.13,'d','p'
7.48,'d','p'
8.73,'d','p'
8.3,'d','p'
9,'d','p'
7.33,'d','p'
8.25,'d','p'
9.27,'d','p'
11.19,'d','p'
8.28,'d','p'
8.87,'d','p'
5.62,'d','p'
9.85,'d','p'
9.2,'d','p'
8.67,'d','p'
8.11,'d','p'
8.97,'d','p'
8.16,'d','p'
8.21,'d','p'
6.14,'d','p'
8,'d','p'
7.84,'d','p'
8.33,'d','p'
8.7,'d','p'
8.71,'d','p'
8.46,'d','p'
9.6,'d','p'
9.03,'d','p'
9.06,'d','p'
8.33,'d','p'
7.36,'d','p'
8.8,'d','p'
7.39,'d','p'
9.43,'d','p'
7.2,'d','p'
10.25,'d','p'
7.51,'d','p'
7.39,'d','p'
7.01,'d','p'
7.19,'d','p'
9.31,'d','p'
7.51,'d','p'
9.45,'d','p'
10.27,'d','p'
8.88,'d','p'
9.84,'d','p'
7.56,'d','p'
7.9,'d','p'
8.98,'d','p'
8.61,'d','p'
7.4,'d','p'
8.06,'d','p'
7.33,'d','p'
6.06,'d','p'
7.67,'d','p'
7.05,'d','p'
5.89,'d','p'
7.44,'d','p'
7.67,'d','p'
10.55,'d','p'
8.45,'d','p'
7.88,'d','p'
7.27,'d','p'
11.9,'d','p'
8.87,'d','p'
10.45,'d','p'
8.49,'d','p'
7.11,'d','p'
9.48,'d','p'
8.75,'d','p'
9.88,'d','p'
8.53,'d','p'
9.5,'d','p'
7.33,'d','p'
8.87,'d','p'
9.16,'d','p'
9.38,'d','p'
7.32,'d','p'
7.5,'d','p'
7.76,'d','p'
10.8,'d','p'
8.41,'d','p'
9.15,'d','p'
8.43,'d','p'
7.23,'d','p'
9.59,'d','p'
10.87,'d','p'
9.6,'d','p'
7.77,'d','p'
7.14,'d','p'
9.65,'d','p'
8.63,'d','p'
8.37,'d','p'
7.53,'d','p'
9.32,'d','p'
7.24,'d','p'
10.96,'d','p'
8.54,'d','p'
7.52,'d','p'
10.63,'d','p'
8.8,'d','p'
8.71,'d','p'
7.98,'d','p'
8.69,'d','p'
9.86,'d','p'
10.74,'d','p'
6.09,'d','e'
7.36,'d','e'
6.52,'d','e'
7.12,'d','e'
6.13,'d','e'
6.2,'d','e'
6.92,'d','e'
6.47,'d','e'
6.61,'d','e'
6,'d','e'
6.9,'d','e'
6.31,'d','e'
5.95,'d','e'
6.99,'d','e'
6.63,'d','e'
7.34,'d','e'
6,'d','e'
5.68,'d','e'
7.44,'d','e'
5.77,'d','e'
6.84,'d','e'
5.75,'d','e'
5.33,'d','e'
6.77,'d','e'
7.13,'d','e'
5.38,'d','e'
7.71,'d','e'
5.99,'d','e'
6.53,'d','e'
6.85,'d','e'
7.03,'d','e'
7.54,'d','e'
7.12,'d','e'
6.21,'d','e'
6.57,'d','e'
7.14,'d','e'
6.4,'d','e'
6.65,'d','e'
6.57,'d','e'
6.86,'d','e'
6.48,'d','e'
6.62,'d','e'
6.4,'d','e'
6.77,'d','e'
7.47,'d','e'
6.2,'d','e'
8.06,'d','e'
7.01,'d','e'
7.11,'d','e'
5.35,'d','e'
5.89,'d','e'
5.65,'d','e'
6.53,'d','e'
4.9,'d','e'
6.7,'d','e'
7.91,'d','e'
6.24,'d','e'
5.76,'d','e'
6.23,'d','e'
6.07,'d','e'
7.93,'d','e'
6.03,'d','e'
6.66,'d','e'
6.01,'d','e'
6.13,'d','e'
5.58,'d','e'
8,'d','e'
6.4,'d','e'
6.16,'d','e'
5.24,'d','e'
5.38,'d','e'
7.22,'d','e'
5.36,'d','e'
8.46,'d','e'
5.66,'d','e'
5.38,'d','e'
6.19,'d','e'
7.04,'d','e'
6.99,'d','e'
4.71,'d','e'
5.68,'d','e'
6,'d','e'
5.65,'d','e'
8.11,'d','e'
6.95,'d','e'
8.2,'d','e'
5.43,'d','e'
6.03,'d','e'
7.53,'d','e'
6.35,'d','e'
6.14,'d','e'
7.27,'d','e'
6.15,'d','e'
6.74,'d','e'
8.11,'d','e'
6.29,'d','e'
6.53,'d','e'
6.53,'d','e'
6.43,'d','e'
6.76,'d','e'
5.52,'d','e'
7.1,'d','e'
5.48,'d','e'
7.38,'d','e'
8.21,'d','e'
5.97,'d','e'
5.59,'d','e'
7.14,'d','e'
6.96,'d','e'
7.14,'d','e'
6.2,'d','e'
6.22,'d','e'
5.78,'d','e'
5.24,'d','e'
6.29,'d','e'
6.62,'d','e'
7.2,'d','e'
6.45,'d','e'
5.82,'d','e'
5.18,'d','e'
5.42,'d','e'
6.7,'d','e'
5.69,'d','e'
7.18,'d','e'
5.87,'d','e'
6.05,'d','e'
7.36,'d','e'
5.44,'d','e'
6.39,'d','e'
6.08,'d','e'
6.6,'d','e'
5.97,'d','e'
6.11,'d','e'
6.01,'d','e'
5.88,'d','e'
3.8,'d','e'
6.69,'d','e'
6.22,'d','e'
7.08,'d','e'
5.03,'d','e'
5.9,'d','e'
7.45,'d','e'
5.59,'d','e'
6.47,'d','e'
6.6,'d','e'
7.83,'d','e'
6.19,'d','e'
6.56,'d','e'
4.3,'d','e'
6.73,'d','e'
6.56,'d','e'
5.73,'d','e'
5.64,'d','e'
7.31,'d','e'
6.27,'d','e'
4.83,'d','e'
6.38,'d','e'
5.44,'d','e'
6.64,'d','e'
5.7,'d','e'
8.43,'d','e'
6.55,'d','e'
7.04,'d','e'
6.85,'d','e'
6.2,'d','e'
6.64,'d','e'
7.92,'d','e'
8.2,'d','e'
6.8,'d','e'
6.31,'d','e'
6.76,'d','e'
5.86,'d','e'
6.04,'d','e'
7.03,'d','e'
6.04,'d','e'
6.76,'d','e'
6.88,'d','e'
5.06,'d','e'
8.01,'d','e'
6.52,'d','e'
7.59,'d','e'
6.15,'d','e'
6.4,'d','e'
6.41,'d','e'
8.35,'d','e'
6.41,'d','e'
8.58,'d','e'
5.9,'d','e'
6.5,'d','e'
5.95,'d','e'
5.46,'d','e'
5.38,'d','e'
7.06,'d','e'
7.22,'d','e'
6.71,'d','e'
7.53,'d','e'
6.17,'d','e'
4.69,'d','e'
6.66,'d','e'
6.83,'d','e'
5.07,'d','e'
5.83,'d','e'
7.59,'d','e'
5.07,'d','e'
5.06,'d','e'
5.74,'d','e'
8.39,'d','e'
5.26,'d','e'
5.12,'d','e'
5.88,'d','e'
7.06,'d','e'
5.42,'d','e'
6.17,'d','e'
7.84,'d','e'
6.92,'d','e'
6.02,'d','e'
7.58,'d','e'
4.72,'d','e'
6.4,'d','e'
6.89,'d','e'
4.89,'d','e'
6.09,'d','e'
7.48,'d','e'
6.85,'d','e'
5.57,'d','e'
6.1,'d','e'
5.21,'d','e'
4.21,'d','e'
6.78,'d','e'
6.01,'d','e'
5.98,'d','e'
7.1,'d','e'
5.79,'d','e'
7.7,'d','e'
6.95,'d','e'
5.99,'d','e'
6.95,'d','e'
6.52,'d','e'
6.42,'d','e'
6.06,'d','e'
5.07,'d','e'
7.63,'d','e'
7.71,'d','e'
6.43,'d','e'
5.95,'d','e'
7.07,'d','e'
5.84,'d','e'
5.01,'d','e'
5.87,'d','e'
5.74,'d','e'
6.24,'d','e'
5.05,'d','e'
5.41,'d','e'
6.15,'d','e'
7.75,'d','e'
7.69,'d','e'
6.6,'d','e'
6.04,'d','e'
7.77,'d','e'
7.91,'d','e'
6.59,'d','e'
5.76,'d','e'
6.99,'d','e'
6.07,'d','e'
5.34,'d','e'
6.35,'d','e'
7.24,'d','e'
7.62,'d','e'
7.53,'d','e'
5.88,'d','e'
6.85,'d','e'
5.67,'d','e'
5.81,'d','e'
6.46,'d','e'
6.57,'d','e'
5.97,'d','e'
6.6,'d','e'
5.99,'d','e'
7.17,'d','e'
7.86,'d','e'
5.77,'d','e'
4.37,'d','e'
6.89,'d','e'
5.24,'d','e'
7.75,'d','e'
6.07,'d','e'
6.03,'d','e'
7.09,'d','e'
8.14,'d','e'
5.81,'d','e'
6.49,'d','e'
5.68,'d','e'
6.8,'d','e'
6.09,'d','e'
7.42,'d','e'
6.22,'d','e'
6.87,'d','e'
6.42,'d','e'
6.78,'d','e'
7.97,'d','e'
7.64,'d','e'
6.09,'d','e'
6.33,'d','e'
7.74,'d','e'
6.66,'d','e'
6.92,'d','e'
6.35,'d','e'
7.01,'d','e'
6.66,'d','e'
7.41,'d','e'
6.45,'d','e'
6.98,'d','e'
6.93,'d','e'
6.76,'d','e'
6.4,'d','e'
5.68,'d','e'
3.91,'d','e'
8.05,'d','e'
5.99,'d','e'
6.72,'d','e'
6.1,'d','e'
6.53,'d','e'
6.96,'d','e'
6.78,'d','e'
6.11,'d','e'
6.37,'d','e'
6.49,'d','e'
7.4,'d','e'
7.28,'d','e'
6.18,'d','e'
8.41,'d','e'
5.99,'d','e'
6.55,'d','e'
6.65,'d','e'
5.02,'d','e'
6.63,'d','e'
5.41,'d','e'
8.24,'d','e'
7,'d','e'
5.7,'d','e'
7.88,'d','e'
6.3,'d','e'
5.29,'d','e'
5.14,'d','e'
6.39,'d','e'
6.92,'d','e'
5.41,'d','e'
5.95,'d','e'
8.18,'d','e'
5.73,'d','e'
6.47,'d','e'
7.1,'d','e'
6.71,'d','e'
6.76,'d','p'
6.83,'d','p'
9.1,'d','p'
8.27,'d','p'
7.95,'d','p'
5.24,'d','p'
7.22,'d','p'
7.75,'d','p'
7.5,'d','p'
7.12,'d','p'
7.1,'d','p'
6.54,'d','p'
6.54,'d','p'
8.37,'d','p'
7.89,'d','p'
7.81,'d','p'
7.69,'d','p'
6.77,'d','p'
7.77,'d','p'
9.26,'d','p'
8.6,'d','p'
8.31,'d','p'
8.63,'d','p'
7.69,'d','p'
7.73,'d','p'
7.03,'d','p'
6.99,'d','p'
7.57,'d','p'
7.05,'d','p'
7.33,'d','p'
8.18,'d','p'
7.35,'d','p'
8.16,'d','p'
6.93,'d','p'
7.46,'d','p'
6.84,'d','p'
7.79,'d','p'
8.28,'d','p'
7.35,'d','p'
5.9,'d','p'
8.39,'d','p'
8.81,'d','p'
6.51,'d','p'
7.18,'d','p'
7.19,'d','p'
7.07,'d','p'
8.17,'d','p'
6.62,'d','p'
7.41,'d','p'
6.6,'d','p'
8.04,'d','p'
7.1,'d','p'
7.63,'d','p'
8.72,'d','p'
8.32,'d','p'
9.03,'d','p'
8.3,'d','p'
6.95,'d','p'
8.54,'d','p'
8.08,'d','p'
8.59,'d','p'
6.76,'d','p'
8.28,'d','p'
6.12,'d','p'
6.81,'d','p'
7.92,'d','p'
9,'d','p'
8.58,'d','p'
7.58,'d','p'
6.04,'d','p'
6.52,'d','p'
6.95,'d','p'
7.06,'d','p'
8.36,'d','p'
7.57,'d','p'
8.21,'d','p'
6.72,'d','p'
7.72,'d','p'
7.6,'d','p'
6.32,'d','p'
9.1,'d','p'
6.52,'d','p'
8.19,'d','p'
7.67,'d','p'
6.12,'d','p'
7.43,'d','p'
7.55,'d','p'
6.58,'d','p'
7.97,'d','p'
7.43,'d','p'
7.67,'d','p'
7.38,'d','p'
7.01,'d','p'
6.61,'d','p'
7.83,'d','p'
8.07,'d','p'
5.9,'d','p'
8.78,'d','p'
7.3,'d','p'
8.12,'d','p'
5.82,'d','p'
7.85,'d','p'
7.24,'d','p'
7.01,'d','p'
7.14,'d','p'
7.41,'d','p'
9.19,'d','p'
7.48,'d','p'
6.33,'d','p'
7.89,'d','p'
7.09,'d','p'
7.78,'d','p'
8.18,'d','p'
7.66,'d','p'
7.1,'d','p'
8.86,'d','p'
5.34,'d','p'
5.9,'d','p'
7.9,'d','p'
6.7,'d','p'
6.42,'d','p'
8.28,'d','p'
7.95,'d','p'
6.62,'d','p'
6.71,'d','p'
8.43,'d','p'
7.5,'d','p'
8.48,'d','p'
7.25,'d','p'
7.74,'d','p'
6.83,'d','p'
7.45,'d','p'
7.22,'d','p'
6.61,'d','p'
7.78,'d','p'
6.48,'d','p'
7.18,'d','p'
8.32,'d','p'
7.8,'d','p'
7.06,'d','p'
6.76,'d','p'
7.3,'d','p'
8.44,'d','p'
8.94,'d','p'
6.16,'d','p'
8.26,'d','p'
8.6,'d','p'
7.66,'d','p'
9,'d','p'
9.01,'d','p'
7.99,'d','p'
7.82,'d','p'
6.07,'d','p'
5.37,'d','p'
7.25,'d','p'
8.52,'d','p'
7.35,'d','p'
7.28,'d','p'
6.71,'d','p'
6.33,'d','p'
7,'d','p'
6.26,'d','p'
7.85,'d','p'
6.86,'d','p'
7.5,'d','p'
9.1,'d','p'
8.11,'d','p'
8.37,'d','p'
6.62,'d','p'
6.82,'d','p'
7.72,'d','p'
8.02,'d','p'
7.55,'d','p'
7.73,'d','p'
6.82,'d','p'
8.15,'d','p'
6.44,'d','p'
7.48,'d','p'
6.39,'d','p'
8.02,'d','p'
6.45,'d','p'
7.59,'d','p'
6.55,'d','p'
8.14,'d','p'
7.21,'d','p'
7.47,'d','p'
6.84,'d','p'
7.76,'d','p'
7.8,'d','p'
6.84,'d','p'
8.77,'d','p'
7.98,'d','p'
7.86,'d','p'
7.91,'d','p'
7.59,'d','p'
7.41,'d','p'
8,'d','p'
8.94,'d','p'
5.08,'d','p'
6.59,'d','p'
8.68,'d','p'
7.31,'d','p'
7.03,'d','p'
8.06,'d','p'
7.1,'d','p'
7.05,'d','p'
6.57,'d','p'
7.43,'d','p'
9.64,'d','p'
8.34,'d','p'
7.17,'d','p'
7.65,'d','p'
6.89,'d','p'
9.27,'d','p'
7.69,'d','p'
8.98,'d','p'
8.55,'d','p'
9.42,'d','p'
8.47,'d','p'
7.44,'d','p'
7.79,'d','p'
8.34,'d','p'
8.51,'d','p'
7.45,'d','p'
5.94,'d','p'
8.41,'d','p'
7.38,'d','p'
7.42,'d','p'
8.05,'d','p'
7.24,'d','p'
9.12,'d','p'
7.63,'d','p'
7.76,'d','p'
7.99,'d','p'
7.65,'d','p'
6.88,'d','p'
7.66,'d','p'
7.92,'d','p'
8.27,'d','p'
7.25,'d','p'
7.26,'d','p'
7.48,'d','p'
7.62,'d','p'
7.71,'d','p'
7.76,'d','p'
7.54,'d','p'
9.01,'d','p'
7.1,'d','p'
8.48,'d','p'
6.95,'d','p'
7.46,'d','p'
7.38,'d','p'
7.81,'d','p'
6.79,'d','p'
7.58,'d','p'
7.92,'d','p'
5.73,'d','p'
7.32,'d','p'
8.39,'d','p'
5.74,'d','p'
7.89,'d','p'
7.38,'d','p'
5.51,'d','p'
7.47,'d','p'
7.45,'d','p'
8.23,'d','p'
7,'d','p'
6.76,'d','p'
4.35,'d','p'
7.35,'d','p'
8.65,'d','p'
8.64,'d','p'
6.76,'d','p'
7.93,'d','p'
6.58,'d','p'
8.35,'d','p'
8.89,'d','p'
6.53,'d','p'
5.54,'d','p'
8.62,'d','p'
8.39,'d','p'
6.79,'d','p'
6.63,'d','p'
7.77,'d','p'
6.91,'d','p'
6.71,'d','p'
8.71,'d','p'
7.14,'d','p'
7.14,'d','p'
6.76,'d','p'
8.58,'d','p'
7.22,'d','p'
7.87,'d','p'
7.25,'d','p'
6.32,'d','p'
9.11,'d','p'
7.67,'d','p'
6.77,'d','p'
6.44,'d','p'
8.16,'d','p'
6.61,'d','p'
6.77,'d','p'
8.01,'d','p'
8.8,'d','p'
6.63,'d','p'
6.28,'d','p'
6.92,'d','p'
8.1,'d','p'
6.99,'d','p'
7.87,'d','p'
6.2,'d','p'
7.38,'d','p'
7.85,'d','p'
7.65,'d','p'
8.37,'d','p'
8.3,'d','p'
7.58,'d','p'
8.46,'d','p'
5.88,'d','p'
8.12,'d','p'
8.46,'d','p'
8.84,'d','p'
7.29,'d','p'
5.69,'d','p'
8.01,'d','p'
6.83,'d','p'
7.38,'d','p'
8.12,'d','p'
7.64,'d','p'
5.83,'d','p'
7.68,'d','p'
7.3,'d','p'
9.63,'d','p'
8.68,'d','p'
8.11,'d','p'
6.33,'d','p'
7.1,'d','p'
7.37,'d','p'
6.74,'d','p'
6.36,'d','p'
7.36,'d','p'
8.02,'d','p'
7.52,'d','p'
7.76,'d','p'
7.33,'d','p'
6.57,'d','p'
7.89,'d','p'
7.79,'d','p'
7.87,'d','p'
7.14,'d','p'
8.44,'d','p'
7.42,'d','p'
6.82,'d','p'
5.51,'d','e'
4.9,'d','e'
5.84,'d','e'
4.43,'d','e'
6.57,'d','e'
6.15,'d','e'
6.25,'d','e'
6.84,'d','e'
6.31,'d','e'
6.38,'d','e'
5.03,'d','e'
6.24,'d','e'
6.43,'d','e'
6.94,'d','e'
5.42,'d','e'
6.19,'d','e'
5.8,'d','e'
5.64,'d','e'
6.15,'d','e'
5.93,'d','e'
6.38,'d','e'
6.71,'d','e'
6.64,'d','e'
7.5,'d','e'
5.3,'d','e'
6.21,'d','e'
6.37,'d','e'
6.4,'d','e'
5.74,'d','e'
6.4,'d','e'
5.66,'d','e'
5.89,'d','e'
5.12,'d','e'
5.44,'d','e'
4.09,'d','e'
5.82,'d','e'
6.23,'d','e'
5.23,'d','e'
7.38,'d','e'
6.76,'d','e'
6.8,'d','e'
5.31,'d','e'
4.94,'d','e'
6.59,'d','e'
5.93,'d','e'
6.01,'d','e'
5.82,'d','e'
6.94,'d','e'
5.01,'d','e'
7.21,'d','e'
6.54,'d','e'
6.18,'d','e'
5.89,'d','e'
6.87,'d','e'
5.1,'d','e'
6.34,'d','e'
6.02,'d','e'
6.68,'d','e'
7.09,'d','e'
5.38,'d','e'
5.78,'d','e'
4.87,'d','e'
6.61,'d','e'
6.62,'d','e'
6.52,'d','e'
5.6,'d','e'
5.55,'d','e'
6.3,'d','e'
5.78,'d','e'
7.15,'d','e'
6.4,'d','e'
5.32,'d','e'
6.35,'d','e'
6.34,'d','e'
5.77,'d','e'
5.99,'d','e'
6.1,'d','e'
5.9,'d','e'
4.39,'d','e'
5.38,'d','e'
6.35,'d','e'
6.41,'d','e'
6.46,'d','e'
6.76,'d','e'
6.83,'d','e'
4.83,'d','e'
5.75,'d','e'
5.42,'d','e'
5.34,'d','e'
6.99,'d','e'
7.69,'d','e'
5.93,'d','e'
6.46,'d','e'
5.64,'d','e'
5.67,'d','e'
6.57,'d','e'
5.93,'d','e'
6.02,'d','e'
7.21,'d','e'
5.82,'d','e'
5.86,'d','e'
6.74,'d','e'
6.29,'d','e'
5.84,'d','e'
5.37,'d','e'
5.97,'d','e'
6.35,'d','e'
5.94,'d','e'
5.61,'d','e'
6.45,'d','e'
5.61,'d','e'
7.38,'d','e'
6.61,'d','e'
6.41,'d','e'
5.79,'d','e'
7.39,'d','e'
5.03,'d','e'
6.44,'d','e'
6.02,'d','e'
6.47,'d','e'
6.33,'d','e'
6.71,'d','e'
4.43,'d','e'
5.08,'d','e'
5.59,'d','e'
5.92,'d','e'
5.86,'d','e'
5.84,'d','e'
5.57,'d','e'
6.21,'d','e'
5.44,'d','e'
6,'d','e'
6.59,'d','e'
6.06,'d','e'
6.18,'d','e'
5.14,'d','e'
6.25,'d','e'
7.11,'d','e'
5.63,'d','e'
6.77,'d','e'
5.26,'d','e'
6.23,'d','e'
6.56,'d','e'
7.13,'d','e'
5.34,'d','e'
6.1,'d','e'
6.12,'d','e'
6.85,'d','e'
5.57,'d','e'
5.37,'d','e'
6.05,'d','e'
5.44,'d','e'
5.77,'d','e'
6.1,'d','e'
7.76,'d','e'
6.12,'d','e'
6.4,'d','e'
6.31,'d','e'
4.79,'d','e'
5.01,'d','e'
6.13,'d','e'
6.45,'d','e'
5.94,'d','e'
5.3,'d','e'
4.66,'d','e'
6.95,'d','e'
5.89,'d','e'
5.93,'d','e'
7.47,'d','e'
5.12,'d','e'
6.41,'d','e'
5.96,'d','e'
4.62,'d','e'
6.36,'d','e'
5.32,'d','e'
5.47,'d','e'
6.61,'d','e'
6.11,'d','e'
6.51,'d','e'
5.79,'d','e'
7.32,'d','e'
5.7,'d','e'
6.5,'d','e'
6.44,'d','e'
5.31,'d','e'
5.44,'d','e'
7.05,'d','e'
6.25,'d','e'
6.21,'d','e'
5.24,'d','e'
5.78,'d','e'
6.68,'d','e'
7.12,'d','e'
5.11,'d','e'
6.83,'d','e'
4.28,'d','e'
6.07,'d','e'
5.85,'d','e'
6.57,'d','e'
6.17,'d','e'
6.43,'d','e'
6,'d','e'
5.42,'d','e'
5.52,'d','e'
5.51,'d','e'
6.58,'d','e'
5.71,'d','e'
5.94,'d','e'
6.3,'d','e'
6.2,'d','e'
6.42,'d','e'
6.02,'d','e'
6.43,'d','e'
6.57,'d','e'
6.88,'d','e'
6.36,'d','e'
6.74,'d','e'
6.51,'d','e'
5.62,'d','e'
5.4,'d','e'
6.12,'d','e'
6.17,'d','e'
6,'d','e'
6.83,'d','e'
5.57,'d','e'
5.67,'d','e'
6,'d','e'
4.71,'d','e'
6.31,'d','e'
5.69,'d','e'
5.66,'d','e'
5.5,'d','e'
6.21,'d','e'
6.12,'d','e'
6.24,'d','e'
6.81,'d','e'
7.04,'d','e'
6.28,'d','e'
6.29,'d','e'
6.22,'d','e'
5.94,'d','e'
5.47,'d','e'
5.89,'d','e'
6.05,'d','e'
5.24,'d','e'
6.25,'d','e'
5.39,'d','e'
5.7,'d','e'
4.46,'d','e'
5.24,'d','e'
6.39,'d','e'
5.65,'d','e'
5.53,'d','e'
5.49,'d','e'
5.47,'d','e'
6.47,'d','e'
5.57,'d','e'
7.08,'d','e'
6.88,'d','e'
6.38,'d','e'
6.57,'d','e'
6.06,'d','e'
5.88,'d','e'
4.83,'d','e'
6.5,'d','e'
5.26,'d','e'
5.8,'d','e'
6.19,'d','e'
6.49,'d','e'
6.75,'d','e'
6.96,'d','e'
7.02,'d','e'
5.51,'d','e'
6.33,'d','e'
5.25,'d','e'
6.23,'d','e'
6.38,'d','e'
6.06,'d','e'
5.79,'d','e'
7.22,'d','e'
6.14,'d','e'
6.19,'d','e'
6.22,'d','e'
6.15,'d','e'
4.94,'d','e'
6.2,'d','e'
6.3,'d','e'
6.24,'d','e'
5.44,'d','e'
7.01,'d','e'
5.39,'d','e'
5.91,'d','e'
4.92,'d','e'
6.48,'d','e'
4.14,'d','e'
4.61,'d','e'
6.33,'d','e'
5.98,'d','e'
7.31,'d','e'
5.86,'d','e'
5.84,'d','e'
5.14,'d','e'
5.1,'d','e'
6.2,'d','e'
6.5,'d','e'
7.06,'d','e'
6.01,'d','e'
7.27,'d','e'
6.22,'d','e'
6.75,'d','e'
5.79,'d','e'
6.74,'d','e'
5.48,'d','e'
5.68,'d','e'
5.55,'d','e'
6.18,'d','e'
5.59,'d','e'
6.46,'d','e'
6.12,'d','e'
5.75,'d','e'
5.83,'d','e'
6.44,'d','e'
7.27,'d','e'
5.41,'d','e'
7.17,'d','e'
6.02,'d','e'
6.09,'d','e'
5.33,'d','e'
4.57,'d','e'
5.2,'d','e'
6.1,'d','e'
6.15,'d','e'
5.17,'d','e'
6.5,'d','e'
5.42,'d','e'
7.22,'d','e'
6.31,'d','e'
5.26,'d','e'
5.55,'d','e'
5.43,'d','e'
6.85,'d','e'
6.28,'d','e'
5.18,'d','e'
5.49,'d','e'
4.88,'d','e'
6.6,'d','e'
3.77,'d','e'
6.04,'d','e'
6.52,'d','e'
6.14,'d','e'
5.85,'d','e'
7.72,'d','e'
5.99,'d','e'
13.87,'m','e'
18.38,'m','e'
18.05,'m','e'
16.67,'d','e'
19.6,'d','e'
18.8,'m','e'
19.82,'d','e'
15,'m','e'
21.29,'m','e'
23.96,'m','e'
21.38,'d','e'
20.61,'d','e'
19.5,'m','e'
13.89,'d','e'
16.74,'d','e'
20.79,'d','e'
18.59,'m','e'
20.48,'m','e'
15.64,'d','e'
16.08,'d','e'
17.09,'d','e'
16.03,'m','e'
15.91,'m','e'
14.94,'d','e'
16.68,'m','e'
19.17,'d','e'
17.22,'d','e'
16.78,'d','e'
16.31,'d','e'
15.28,'d','e'
21.83,'d','e'
25.98,'m','e'
19.58,'d','e'
15.51,'m','e'
13.37,'m','e'
20.74,'m','e'
19.79,'m','e'
16.31,'m','e'
18.93,'d','e'
18.51,'d','e'
19.36,'m','e'
15.96,'d','e'
17.8,'m','e'
16.35,'m','e'
18.82,'d','e'
17.67,'m','e'
21.17,'m','e'
15.75,'m','e'
15.27,'m','e'
17.32,'m','e'
19.77,'d','e'
15.4,'d','e'
16.85,'d','e'
17.37,'m','e'
15.13,'d','e'
21.45,'d','e'
19.15,'m','e'
19.99,'d','e'
17.55,'d','e'
17.39,'m','e'
16.88,'m','e'
15.03,'m','e'
14.58,'d','e'
14.82,'d','e'
13.51,'m','e'
19.33,'m','e'
17.97,'d','e'
17.29,'m','e'
13.9,'d','e'
15.55,'d','e'
17.62,'d','e'
20.03,'d','e'
16.33,'d','e'
23.46,'m','e'
19.5,'m','e'
18.13,'d','e'
18.8,'d','e'
18.95,'m','e'
15.04,'d','e'
17.08,'m','e'
17.5,'m','e'
18.38,'m','e'
15.98,'m','e'
16.44,'m','e'
20.85,'d','e'
16.33,'m','e'
16.5,'d','e'
15.07,'m','e'
19.21,'m','e'
19.62,'d','e'
21.56,'m','e'
17.61,'m','e'
20.01,'m','e'
22.33,'m','e'
19.72,'m','e'
14.19,'d','e'
18.76,'m','e'
16.25,'d','e'
14.27,'d','e'
22.61,'d','e'
21.08,'m','e'
15.8,'m','e'
17.82,'m','e'
16.24,'m','e'
21.72,'d','e'
19.68,'d','e'
19.63,'d','e'
19.79,'m','e'
14.82,'d','e'
17.26,'d','e'
15.78,'m','e'
18.11,'m','e'
17.96,'d','e'
24.36,'d','e'
15.84,'d','e'
15.23,'d','e'
15,'d','e'
19.28,'d','e'
19.21,'d','e'
19.41,'m','e'
14.23,'m','e'
16.33,'m','e'
14.58,'m','e'
17.41,'d','e'
15.54,'m','e'
18.59,'d','e'
16.99,'d','e'
11.21,'m','e'
11.7,'m','e'
17.35,'m','e'
19,'d','e'
15.86,'d','e'
17.76,'m','e'
20.02,'d','e'
15.69,'d','e'
17.39,'m','e'
17.46,'d','e'
12.67,'m','e'
19.65,'m','e'
15.61,'m','e'
20.87,'d','e'
19.85,'d','e'
15.88,'d','e'
16.96,'m','e'
18.9,'d','e'
14.39,'d','e'
21.22,'d','e'
17.85,'d','e'
18.65,'m','e'
13.84,'m','e'
20.04,'m','e'
19.53,'m','e'
16.1,'m','e'
14.39,'m','e'
12.61,'m','e'
15.25,'m','e'
13.55,'d','e'
17.29,'m','e'
16,'d','e'
16.26,'d','e'
20.52,'m','e'
16.73,'m','e'
22.01,'d','e'
17.71,'d','e'
13.77,'d','e'
17.81,'d','e'
13.58,'m','e'
14.85,'d','e'
20.39,'d','e'
13.35,'m','e'
13.8,'m','e'
15.24,'m','e'
13.68,'m','e'
11.78,'m','e'
16.64,'d','e'
19.3,'d','e'
16.23,'d','e'
18.14,'d','e'
24.74,'d','e'
19.56,'d','e'
14.54,'d','e'
18.61,'m','e'
21.16,'d','e'
14.62,'d','e'
17.45,'d','e'
19.19,'m','e'
19.17,'m','e'
19.19,'m','e'
16.45,'m','e'
19.52,'m','e'
19.36,'d','e'
17.76,'d','e'
21.07,'d','e'
19.14,'m','e'
14.36,'d','e'
17.74,'m','e'
22.34,'d','e'
22.12,'d','e'
17.92,'m','e'
19.22,'m','e'
16.32,'m','e'
15.78,'m','e'
18.27,'m','e'
17.67,'d','e'
19.13,'m','e'
20.53,'m','e'
15.4,'d','e'
16.78,'d','e'
22.54,'d','e'
17.05,'d','e'
15.59,'m','e'
18.23,'m','e'
14.41,'d','e'
13.78,'m','e'
19.84,'d','e'
13.76,'m','e'
20.17,'d','e'
21.52,'d','e'
16.97,'m','e'
15.59,'m','e'
20.45,'d','e'
16.45,'m','e'
22.64,'d','e'
16.83,'d','e'
16.28,'d','e'
18.54,'m','e'
15,'d','e'
17.19,'m','e'
13.19,'d','e'
18.11,'m','e'
15.25,'d','e'
14.37,'d','e'
18.2,'d','e'
12.98,'d','e'
17.71,'d','e'
17.45,'m','e'
19.05,'d','e'
14.71,'d','e'
19.38,'d','e'
17.55,'m','e'
13.27,'d','e'
13.14,'m','e'
19.37,'m','e'
17.03,'d','e'
18.36,'d','e'
20.54,'m','e'
18.03,'d','e'
17.48,'m','e'
14.24,'m','e'
16.91,'d','e'
18.19,'d','e'
19.95,'m','e'
17.87,'m','e'
19.41,'m','e'
16.78,'d','e'
21.08,'m','e'
19.04,'d','e'
19.14,'d','e'
17.26,'m','e'
18.42,'d','e'
20.65,'d','e'
16.88,'m','e'
14.17,'m','e'
21.96,'d','e'
13.46,'m','e'
17.64,'m','e'
10.82,'d','e'
19.76,'m','e'
19.23,'m','e'
16,'d','e'
18.26,'m','e'
19.21,'d','e'
18.2,'m','e'
18.8,'m','e'
16.73,'d','e'
11.44,'m','e'
16.91,'m','e'
19.97,'d','e'
16.17,'d','e'
17.68,'d','e'
17.63,'d','e'
14.52,'m','e'
17.34,'m','e'
16.01,'d','e'
15.67,'d','e'
12.58,'d','e'
16.74,'m','e'
20.35,'d','e'
15.04,'d','e'
14.97,'d','e'
15.59,'d','e'
15.29,'d','e'
16.98,'m','e'
14.57,'d','e'
17.89,'d','e'
17.84,'d','e'
18.53,'m','e'
16.56,'m','e'
14.79,'m','e'
19.9,'m','e'
18.98,'d','e'
16.39,'m','e'
19.08,'d','e'
15.56,'m','e'
13.72,'m','e'
14.97,'d','e'
17.98,'m','e'
17.02,'m','e'
19.37,'m','e'
14.21,'m','e'
15.43,'m','e'
16.61,'d','e'
16.34,'m','e'
21.5,'d','e'
17.36,'m','e'
18.43,'d','e'
17.17,'m','e'
15.57,'m','e'
18.88,'d','e'
19.89,'d','e'
18.91,'m','e'
19.53,'m','e'
18.01,'m','e'
17.43,'m','e'
16.67,'d','e'
17.74,'m','e'
19.31,'m','e'
20.62,'m','e'
17.91,'m','e'
20.44,'m','e'
20.88,'d','e'
15.55,'d','e'
16.57,'d','e'
20.53,'m','e'
17.06,'m','e'
16.11,'m','e'
14.44,'m','e'
20.17,'m','e'
16.11,'m','e'
16.41,'m','e'
12.95,'m','e'
18.96,'m','e'
15.24,'m','e'
24.77,'d','e'
20.16,'m','e'
21.08,'m','e'
14.1,'m','e'
17.91,'d','e'
15.27,'d','e'
18.97,'d','e'
15.96,'m','e'
17.39,'d','e'
19.28,'m','e'
15.39,'d','e'
16.21,'g','e'
16.88,'d','e'
15.09,'g','e'
15.1,'d','e'
15.33,'d','e'
15.31,'g','e'
15.95,'g','e'
14.43,'g','e'
15.37,'g','e'
14.05,'d','e'
17.51,'d','e'
13.79,'d','e'
15.77,'d','e'
11.99,'d','e'
15.63,'g','e'
15.72,'g','e'
15.14,'d','e'
15.78,'d','e'
13.64,'d','e'
14.79,'g','e'
15.13,'g','e'
15.62,'g','e'
15.84,'d','e'
16.3,'d','e'
13.95,'d','e'
14.86,'g','e'
16.27,'g','e'
14.6,'g','e'
17.19,'g','e'
15.58,'g','e'
16.96,'g','e'
15.65,'g','e'
15.45,'d','e'
15.5,'g','e'
15.3,'d','e'
14.89,'g','e'
14.06,'d','e'
14.15,'g','e'
15.2,'d','e'
15.08,'d','e'
15.86,'g','e'
14.99,'g','e'
14.94,'d','e'
16.14,'g','e'
15.2,'d','e'
14.63,'d','e'
15.34,'g','e'
15.36,'d','e'
15.25,'g','e'
14.18,'d','e'
16.18,'d','e'
14.26,'g','e'
14.77,'d','e'
15.2,'d','e'
15.59,'g','e'
15.14,'d','e'
15.48,'g','e'
15.42,'d','e'
13.48,'d','e'
15.61,'g','e'
14.18,'g','e'
15.24,'g','e'
14.61,'d','e'
14.88,'d','e'
16.52,'d','e'
14.14,'g','e'
15.32,'d','e'
14.51,'d','e'
14.75,'d','e'
15.21,'g','e'
16.2,'g','e'
16.51,'d','e'
15.63,'g','e'
14.15,'g','e'
15.71,'g','e'
13.4,'g','e'
15.53,'g','e'
15.37,'d','e'
14.2,'d','e'
13.61,'g','e'
14.12,'d','e'
13.55,'d','e'
14.7,'d','e'
12.81,'g','e'
14.22,'d','e'
13.96,'d','e'
15.27,'d','e'
15.93,'d','e'
15.54,'g','e'
15.56,'d','e'
13.26,'d','e'
14.21,'g','e'
14.24,'d','e'
14.17,'g','e'
15.26,'d','e'
14.21,'d','e'
14.02,'g','e'
16.29,'g','e'
16.43,'g','e'
17.18,'g','e'
15.65,'d','e'
14.1,'d','e'
15.36,'d','e'
15.99,'d','e'
14.59,'d','e'
14.35,'d','e'
14.91,'d','e'
16.22,'g','e'
14.3,'d','e'
16.15,'g','e'
15.82,'d','e'
15.71,'d','e'
16.46,'d','e'
14.88,'d','e'
14.74,'d','e'
14.21,'d','e'
14.13,'g','e'
13.7,'d','e'
15.41,'g','e'
13.95,'g','e'
15.85,'d','e'
15.65,'g','e'
15.8,'g','e'
14.78,'g','e'
14.78,'d','e'
13.66,'g','e'
14.35,'g','e'
15.79,'d','e'
14.67,'g','e'
14.89,'d','e'
14.23,'g','e'
13.85,'d','e'
13.97,'g','e'
15.81,'d','e'
13.93,'g','e'
15.54,'g','e'
16.72,'d','e'
16.44,'d','e'
14.51,'d','e'
13.8,'g','e'
14.5,'g','e'
15.62,'d','e'
15.53,'g','e'
14.82,'g','e'
14.75,'g','e'
15.73,'g','e'
15.57,'g','e'
14.37,'g','e'
16,'d','e'
14.77,'g','e'
16.17,'g','e'
15.83,'g','e'
14.36,'d','e'
12.61,'d','e'
15.31,'g','e'
15.67,'d','e'
15.37,'d','e'
15.26,'g','e'
15.03,'g','e'
14.74,'g','e'
14.21,'d','e'
15.86,'d','e'
15.64,'g','e'
14.41,'g','e'
15.45,'g','e'
15.12,'d','e'
14.92,'g','e'
14.44,'d','e'
13.47,'d','e'
15.89,'g','e'
15.98,'g','e'
14.4,'g','e'
14.53,'g','e'
15.48,'g','e'
14.88,'d','e'
13.9,'d','e'
15.91,'d','e'
15.89,'g','e'
14.36,'g','e'
13.6,'g','e'
15.78,'d','e'
14.77,'g','e'
14.38,'d','e'
14.22,'d','e'
14.64,'g','e'
13.82,'g','e'
13.35,'d','e'
15.15,'g','e'
14.71,'g','e'
11.91,'g','e'
13.87,'d','e'
16.05,'d','e'
14.41,'g','e'
14.14,'g','e'
16.3,'g','e'
14.74,'g','e'
15.03,'g','e'
15.59,'d','e'
14.76,'d','e'
14.59,'d','e'
15.46,'g','e'
14.43,'d','e'
15.41,'g','e'
15.92,'g','e'
15.22,'g','e'
15.77,'g','e'
16.74,'d','e'
15.01,'d','e'
15.87,'d','e'
14.2,'g','e'
15.5,'d','e'
16.42,'g','e'
14.89,'d','e'
13.9,'g','e'
15.13,'d','e'
16.32,'d','e'
14.49,'g','e'
13.76,'d','e'
16.54,'g','e'
15.02,'d','e'
15.65,'d','e'
15.39,'g','e'
15.62,'g','e'
14.55,'g','e'
14.61,'d','e'
16.62,'g','e'
15.46,'g','e'
17.04,'d','e'
14.99,'d','e'
15.03,'g','e'
12.86,'d','e'
15.82,'d','e'
15.71,'g','e'
15.96,'g','e'
15.88,'d','e'
14.27,'d','e'
13.05,'g','e'
13.05,'d','e'
16.07,'g','e'
15.92,'g','e'
13.98,'g','e'
16.27,'g','e'
15.01,'d','e'
15.18,'d','e'
13.85,'d','e'
14.82,'d','e'
14.45,'g','e'
15.26,'g','e'
16.54,'g','e'
12.69,'g','e'
15.22,'g','e'
14.29,'g','e'
14.65,'g','e'
15.18,'g','e'
15.63,'g','e'
15.21,'g','e'
14.94,'g','e'
13.13,'d','e'
16.68,'d','e'
14.48,'d','e'
15.52,'d','e'
16.22,'d','e'
16.08,'d','e'
14.94,'d','e'
16.2,'d','e'
15.89,'g','e'
16.14,'g','e'
16.05,'d','e'
16.64,'g','e'
16.86,'g','e'
13.5,'g','e'
13.59,'d','e'
13.35,'d','e'
14.53,'d','e'
15.91,'g','e'
13.81,'g','e'
14.97,'d','e'
14.38,'g','e'
14.01,'g','e'
14.63,'d','e'
15.79,'g','e'
15.82,'d','e'
16.07,'g','e'
16.79,'g','e'
13.05,'g','e'
15.74,'g','e'
13.32,'d','e'
15.19,'d','e'
16.47,'d','e'
15.53,'g','e'
16.5,'d','e'
14.61,'d','e'
14.4,'d','e'
16.07,'g','e'
15.47,'g','e'
16.94,'g','e'
13.34,'g','e'
13.99,'g','e'
15.97,'d','e'
14.53,'d','e'
14.45,'g','e'
13.97,'d','e'
14.66,'g','e'
16.51,'d','e'
15.39,'d','e'
17.12,'d','e'
13.16,'d','e'
14.63,'g','e'
16.83,'d','e'
15.19,'g','e'
15.56,'d','e'
14.74,'g','e'
14.77,'d','e'
16.21,'d','e'
14.13,'g','e'
14.38,'g','e'
14.24,'d','e'
16.04,'g','e'
14.71,'d','e'
15.22,'d','e'
14.18,'g','e'
15.14,'d','e'
13.47,'g','e'
15.35,'g','e'
15.64,'g','e'
14.68,'d','e'
17.1,'g','e'
16.28,'g','e'
15.74,'g','e'
13.89,'d','e'
14.84,'d','e'
15.31,'d','e'
13.72,'d','e'
14.84,'g','e'
14.53,'g','e'
15.66,'d','e'
16.66,'g','e'
15.24,'d','e'
15.36,'g','e'
14.47,'d','e'
14.27,'g','e'
15.57,'g','e'
14.05,'g','e'
15.74,'d','e'
14.83,'g','e'
15.39,'g','e'
15.18,'d','e'
15.8,'d','e'
13.59,'g','e'
13.71,'d','e'
15.22,'g','e'
14.94,'d','e'
3.65,'d','p'
4.64,'d','p'
4.21,'m','p'
2.78,'d','p'
3.09,'m','p'
3.44,'m','p'
2.87,'d','p'
3.78,'d','p'
2.79,'d','p'
3.48,'m','p'
3.06,'m','p'
4.34,'d','p'
2.91,'m','p'
3.11,'d','p'
2.76,'d','p'
3.61,'m','p'
3.42,'d','p'
3.66,'m','p'
2.77,'m','p'
3.85,'m','p'
3.44,'d','p'
3.58,'d','p'
3.71,'d','p'
3.34,'d','p'
3.18,'d','p'
2.87,'m','p'
2.21,'d','p'
3.73,'m','p'
3.36,'m','p'
3.18,'d','p'
3.07,'m','p'
4.04,'m','p'
3.6,'d','p'
2.09,'m','p'
3.43,'m','p'
3.66,'m','p'
2.97,'d','p'
3.52,'m','p'
3.42,'m','p'
4.47,'d','p'
2.86,'d','p'
3.18,'d','p'
3.28,'m','p'
3.36,'d','p'
4.04,'m','p'
3.51,'d','p'
3.18,'m','p'
3.1,'m','p'
2.96,'m','p'
2.7,'m','p'
2.9,'d','p'
3.42,'m','p'
3.73,'m','p'
3.08,'m','p'
2.56,'m','p'
3.14,'m','p'
3.24,'d','p'
3.42,'m','p'
3.19,'m','p'
3.37,'d','p'
2.39,'d','p'
3.09,'d','p'
2.97,'m','p'
3.62,'m','p'
3.11,'d','p'
3.78,'m','p'
2.9,'d','p'
3.58,'d','p'
3.48,'m','p'
3.32,'d','p'
4.03,'m','p'
4.2,'d','p'
3.42,'d','p'
3.88,'m','p'
3.4,'d','p'
3.96,'m','p'
2.98,'d','p'
4.47,'m','p'
3.82,'m','p'
2.87,'d','p'
3.29,'m','p'
3.55,'d','p'
3.42,'m','p'
3.37,'d','p'
3.53,'d','p'
3.46,'m','p'
3.86,'d','p'
3.25,'m','p'
2.86,'m','p'
4.02,'d','p'
3.44,'d','p'
4.55,'m','p'
3.93,'m','p'
3.83,'d','p'
3.77,'m','p'
3.78,'m','p'
3.64,'m','p'
2.98,'d','p'
3.95,'m','p'
2.9,'m','p'
3.17,'m','p'
3.24,'d','p'
3.65,'d','p'
3.61,'m','p'
3.86,'m','p'
2.42,'d','p'
3.19,'d','p'
3.44,'d','p'
4.28,'m','p'
3.71,'d','p'
3.26,'m','p'
3.11,'d','p'
3.72,'d','p'
3.26,'m','p'
3.31,'d','p'
4.11,'m','p'
3.69,'d','p'
2.77,'d','p'
3.95,'m','p'
3.99,'m','p'
2.71,'m','p'
3.12,'m','p'
3.57,'m','p'
3.19,'m','p'
3.43,'m','p'
3.23,'m','p'
4.18,'m','p'
3.27,'d','p'
3.56,'m','p'
3.11,'d','p'
3.33,'m','p'
3.84,'d','p'
3.53,'m','p'
3.18,'m','p'
3.42,'m','p'
4.11,'m','p'
4.33,'d','p'
3.95,'m','p'
3.27,'d','p'
3.7,'d','p'
3.88,'d','p'
3.18,'m','p'
2.61,'d','p'
3.48,'d','p'
3.23,'d','p'
3.8,'d','p'
3.44,'m','p'
3.67,'d','p'
2.79,'m','p'
4.08,'d','p'
3.38,'d','p'
3.93,'m','p'
3.39,'m','p'
3.92,'d','p'
3.47,'m','p'
3.97,'d','p'
3.4,'d','p'
4.32,'d','p'
3.07,'m','p'
3.72,'d','p'
2.74,'d','p'
3.32,'m','p'
4.03,'m','p'
3.82,'m','p'
4.1,'m','p'
3.88,'m','p'
3.1,'d','p'
4.18,'d','p'
3.63,'d','p'
3.89,'m','p'
2.38,'m','p'
2.87,'m','p'
3.47,'d','p'
4.06,'m','p'
3.57,'m','p'
3.58,'d','p'
4.03,'d','p'
4.22,'m','p'
3.44,'d','p'
3.01,'d','p'
2.24,'d','p'
4.27,'m','p'
3.03,'d','p'
3.38,'m','p'
3.83,'d','p'
3.42,'m','p'
3.44,'d','p'
2.91,'d','p'
3.25,'m','p'
3.02,'m','p'
2.67,'d','p'
3.96,'d','p'
4.37,'d','p'
2.77,'m','p'
2.58,'m','p'
4.2,'d','p'
3.84,'m','p'
3.96,'d','p'
3.54,'m','p'
3.6,'d','p'
4.63,'m','p'
3.34,'d','p'
3.08,'d','p'
4.63,'d','p'
3.36,'m','p'
3,'m','p'
4.25,'m','p'
3.53,'d','p'
3.78,'m','p'
3.05,'m','p'
3.47,'m','p'
3.01,'d','p'
3.91,'m','p'
3.76,'d','p'
2.21,'m','p'
2.28,'m','p'
3.33,'d','p'
3.28,'d','p'
4.29,'d','p'
4.47,'d','p'
3.83,'d','p'
4.07,'d','p'
3.84,'d','p'
2.32,'m','p'
3.64,'d','p'
3.9,'d','p'
3.69,'m','p'
3.75,'d','p'
2.85,'d','p'
3.78,'m','p'
3.38,'m','p'
4.05,'m','p'
3.84,'d','p'
4.34,'m','p'
2.93,'d','p'
3.17,'d','p'
3.64,'d','p'
3.35,'m','p'
3.63,'m','p'
3.11,'m','p'
3.17,'m','p'
3.88,'d','p'
3.03,'m','p'
4.09,'d','p'
3.52,'m','p'
3.98,'d','p'
3.8,'d','p'
4.37,'d','p'
3.16,'d','p'
3.45,'m','p'
4.35,'d','p'
3.78,'m','p'
3.3,'d','p'
3.58,'d','p'
3.09,'d','p'
4.13,'m','p'
3.3,'d','p'
3.39,'d','p'
2.85,'m','p'
4.25,'d','p'
3.17,'m','p'
3.4,'m','p'
3.4,'d','p'
3.03,'m','p'
3.31,'d','p'
2.5,'d','p'
3.27,'d','p'
3.71,'m','p'
3.84,'m','p'
3.07,'d','p'
4.1,'d','p'
3.82,'d','p'
3.88,'d','p'
3.36,'m','p'
3.64,'m','p'
3.4,'d','p'
3.93,'m','p'
3.17,'d','p'
3.11,'m','p'
3.35,'d','p'
3.48,'m','p'
2.8,'m','p'
3.29,'m','p'
3.11,'d','p'
3.91,'d','p'
3.81,'d','p'
2.76,'m','p'
3.39,'d','p'
2.91,'d','p'
3.55,'d','p'
3.85,'d','p'
3.3,'d','p'
3.69,'d','p'
2.77,'d','p'
2.89,'d','p'
2.82,'d','p'
4.14,'d','p'
3.44,'m','p'
3.87,'m','p'
3.71,'m','p'
3.51,'m','p'
3.3,'m','p'
3.93,'m','p'
2.45,'m','p'
3.28,'m','p'
4.17,'m','p'
3.26,'m','p'
4.05,'m','p'
4.16,'d','p'
3.15,'d','p'
3.28,'d','p'
3.57,'m','p'
4.79,'m','p'
3.56,'d','p'
2.94,'d','p'
3.87,'d','p'
2.91,'d','p'
4.1,'m','p'
3.37,'m','p'
3.34,'d','p'
3.3,'d','p'
3.71,'m','p'
3.3,'m','p'
3.49,'m','p'
3.35,'m','p'
3.91,'m','p'
3.32,'m','p'
3.19,'m','p'
2.88,'d','p'
4.01,'d','p'
3.75,'d','p'
3.03,'m','p'
3.5,'d','p'
3.57,'m','p'
4.04,'d','p'
3.69,'m','p'
2.49,'d','p'
2.71,'m','p'
3.86,'d','p'
3.3,'d','p'
4.28,'m','p'
3.11,'m','p'
4.5,'m','p'
3.57,'m','p'
3.7,'m','p'
3.83,'m','p'
3.12,'m','p'
3.02,'d','p'
4.03,'m','p'
4.26,'m','p'
3.12,'d','p'
2.34,'d','p'
3.19,'m','p'
3.07,'d','p'
3.34,'g','p'
3.02,'h','p'
3.35,'d','p'
4.07,'g','p'
3.62,'d','p'
3.62,'h','p'
3.98,'d','p'
3.87,'d','p'
3.47,'h','p'
3.49,'d','p'
3.92,'h','p'
3.7,'h','p'
4.35,'h','p'
3.77,'h','p'
2.94,'d','p'
3.18,'h','p'
3.84,'h','p'
3.52,'g','p'
4.03,'d','p'
3.33,'d','p'
3.99,'h','p'
4.12,'d','p'
3.51,'h','p'
2.89,'h','p'
3.74,'d','p'
3.29,'h','p'
3.44,'g','p'
3.84,'g','p'
3.06,'d','p'
3.01,'g','p'
3.17,'h','p'
3.64,'d','p'
3.24,'d','p'
3.68,'g','p'
3.07,'h','p'
3.46,'d','p'
3.25,'g','p'
3.47,'d','p'
2.92,'g','p'
4.1,'h','p'
4.28,'g','p'
3.04,'g','p'
3.85,'d','p'
3.19,'g','p'
3.55,'g','p'
2.91,'d','p'
3.59,'d','p'
2.59,'h','p'
3.09,'d','p'
3.85,'h','p'
2.89,'d','p'
3.54,'g','p'
4.11,'g','p'
3.13,'d','p'
3.14,'h','p'
3.79,'h','p'
3.32,'g','p'
3.38,'h','p'
3.49,'g','p'
4.15,'h','p'
3.73,'h','p'
3.24,'d','p'
3.94,'h','p'
2.99,'g','p'
2.6,'g','p'
3.69,'d','p'
3.33,'h','p'
3.36,'d','p'
3.54,'h','p'
4.5,'g','p'
3.55,'h','p'
3.9,'g','p'
4.05,'h','p'
2.94,'h','p'
2.91,'d','p'
3.53,'g','p'
3.48,'d','p'
2.65,'g','p'
3.32,'g','p'
3.33,'g','p'
3.13,'g','p'
3.07,'h','p'
3.25,'g','p'
3.45,'g','p'
3.53,'d','p'
3.2,'h','p'
3.82,'h','p'
4.13,'d','p'
3.62,'h','p'
2.78,'g','p'
4.18,'d','p'
3.87,'g','p'
3.57,'g','p'
3.96,'g','p'
3.03,'d','p'
3.89,'d','p'
3.66,'g','p'
3.96,'d','p'
2.85,'d','p'
4.24,'h','p'
3.25,'g','p'
4.31,'g','p'
3.64,'g','p'
3.49,'h','p'
4.09,'h','p'
3.59,'h','p'
3,'g','p'
3.76,'g','p'
3.39,'h','p'
3.47,'d','p'
4.13,'h','p'
3.08,'h','p'
3.51,'h','p'
3.61,'d','p'
2.78,'d','p'
3.97,'h','p'
3.28,'d','p'
2.65,'g','p'
3.09,'h','p'
2.89,'h','p'
3.34,'g','p'
3.43,'h','p'
2.75,'g','p'
3.67,'h','p'
4.11,'g','p'
4.01,'h','p'
3.71,'h','p'
2.98,'g','p'
4.18,'g','p'
3.67,'h','p'
3.4,'g','p'
3.4,'g','p'
4.22,'d','p'
3.01,'g','p'
4.07,'g','p'
4.15,'h','p'
4.56,'d','p'
3.2,'d','p'
3.22,'g','p'
3.93,'g','p'
4.28,'g','p'
4.49,'g','p'
4.09,'d','p'
3.95,'d','p'
3.34,'g','p'
2.68,'g','p'
3.48,'d','p'
3.52,'g','p'
4.6,'d','p'
3.38,'g','p'
2.44,'g','p'
3.75,'d','p'
3.51,'g','p'
3.24,'d','p'
2.57,'d','p'
3.47,'g','p'
3.99,'g','p'
3.8,'g','p'
3.09,'d','p'
4.3,'h','p'
3.76,'h','p'
3.44,'d','p'
3.09,'h','p'
3.49,'h','p'
3.1,'g','p'
3.92,'g','p'
2.95,'d','p'
3.56,'g','p'
3.27,'d','p'
2.61,'h','p'
3.36,'d','p'
3.04,'d','p'
4.38,'d','p'
2.93,'d','p'
3.12,'h','p'
3.65,'g','p'
4.05,'h','p'
4.08,'h','p'
3.84,'d','p'
3.29,'d','p'
3.71,'g','p'
3.37,'d','p'
3.84,'g','p'
3.34,'g','p'
3.74,'h','p'
3.7,'g','p'
3.75,'h','p'
2.56,'g','p'
3.45,'h','p'
4.06,'h','p'
3.36,'h','p'
2.91,'g','p'
3.2,'h','p'
4.25,'d','p'
4.26,'g','p'
3.95,'h','p'
2.6,'h','p'
3.59,'d','p'
3.43,'h','p'
3.53,'g','p'
3.8,'h','p'
3.77,'h','p'
3.58,'d','p'
3.8,'h','p'
3.32,'d','p'
4.47,'h','p'
2.82,'d','p'
4.14,'g','p'
3.27,'d','p'
3.38,'h','p'
3.46,'d','p'
2.79,'g','p'
3.67,'g','p'
3.56,'g','p'
3.91,'g','p'
3.22,'h','p'
3.51,'g','p'
2.77,'g','p'
4.14,'g','p'
2.29,'h','p'
3.61,'g','p'
2.88,'h','p'
3.63,'g','p'
3.68,'g','p'
4.14,'g','p'
3.35,'d','p'
3.45,'d','p'
2.77,'g','p'
3.28,'g','p'
3.42,'g','p'
2.89,'g','p'
2.92,'h','p'
4.16,'h','p'
2.47,'h','p'
3.71,'g','p'
4.2,'d','p'
3.89,'h','p'
3.32,'g','p'
3.19,'g','p'
3.16,'h','p'
3.02,'d','p'
3.03,'h','p'
3.78,'g','p'
3.9,'d','p'
4.16,'h','p'
3.8,'d','p'
3.27,'h','p'
4.63,'d','p'
3.72,'g','p'
4.1,'g','p'
4.62,'h','p'
2.66,'d','p'
3.16,'h','p'
3.14,'g','p'
3.05,'d','p'
4.26,'d','p'
3.65,'g','p'
2.95,'d','p'
3.72,'d','p'
3.65,'g','p'
3.9,'g','p'
3.32,'d','p'
3.38,'d','p'
3.37,'g','p'
3.79,'g','p'
3.6,'g','p'
4,'g','p'
4.05,'h','p'
2.57,'h','p'
2.59,'h','p'
3.53,'h','p'
3.17,'g','p'
3.76,'g','p'
3.07,'g','p'
3.42,'g','p'
3.08,'g','p'
3.25,'g','p'
2.91,'g','p'
2.9,'h','p'
3.24,'g','p'
3.58,'g','p'
2.71,'g','p'
3.63,'h','p'
3.17,'h','p'
3.28,'g','p'
4.09,'d','p'
3.37,'g','p'
2.74,'h','p'
2.95,'d','p'
3.06,'h','p'
3.77,'g','p'
3.34,'g','p'
3.69,'g','p'
3.66,'g','p'
3.58,'h','p'
3.83,'g','p'
4.41,'g','p'
3.54,'g','p'
3.68,'d','p'
4.06,'g','p'
3.7,'d','p'
3.31,'h','p'
3.85,'g','p'
2.84,'h','p'
3.7,'g','p'
2.93,'h','p'
3.16,'h','p'
3.28,'h','p'
3.98,'g','p'
3.93,'d','p'
3.2,'d','p'
3.1,'g','p'
3.62,'d','p'
3.23,'d','p'
3.04,'h','p'
3.81,'h','p'
3.67,'g','p'
3.34,'h','p'
2.69,'h','p'
3.47,'d','p'
3.86,'g','p'
3.99,'g','p'
3.79,'g','p'
3.38,'g','p'
4.08,'h','p'
3.93,'h','p'
4.06,'h','p'
2.88,'d','p'
3.2,'h','p'
2.69,'h','p'
4.43,'h','p'
4.07,'h','p'
3.5,'g','p'
2.67,'h','p'
2.92,'g','p'
4,'h','p'
3.52,'h','p'
3.84,'g','p'
3.35,'d','p'
3.11,'g','p'
2.88,'h','p'
3.52,'h','p'
3.17,'g','p'
3.7,'g','p'
3.71,'h','p'
4.12,'g','p'
3.21,'g','p'
3.91,'d','p'
3.18,'h','p'
4.26,'d','p'
3.3,'g','p'
3.64,'h','p'
2.7,'h','e'
2.41,'h','e'
2.69,'h','e'
2.48,'l','e'
2.75,'l','e'
2.05,'l','e'
1.48,'l','e'
2.38,'l','e'
2.51,'l','e'
3.71,'l','e'
2.5,'h','e'
2.17,'l','e'
2.83,'h','e'
2.87,'l','e'
2.77,'h','e'
2.85,'h','e'
3.03,'h','e'
3.01,'h','e'
2.63,'l','e'
2.46,'l','e'
2.98,'l','e'
2.89,'l','e'
3.55,'l','e'
2.28,'h','e'
2.33,'l','e'
2.57,'h','e'
2.83,'l','e'
2.22,'h','e'
2.23,'h','e'
2.3,'h','e'
2.14,'h','e'
2.19,'l','e'
1.87,'l','e'
2.4,'h','e'
2.69,'l','e'
1.54,'h','e'
2.21,'h','e'
2.33,'l','e'
2.73,'h','e'
2.27,'l','e'
2.3,'l','e'
2.01,'h','e'
1.91,'h','e'
2.92,'l','e'
2.14,'h','e'
2.99,'l','e'
2.51,'h','e'
2.43,'l','e'
3.04,'h','e'
2.39,'l','e'
1.87,'l','e'
2.52,'h','e'
2.71,'h','e'
2.12,'h','e'
2.39,'h','e'
2.64,'h','e'
1.28,'l','e'
1.5,'l','e'
2.45,'h','e'
2.94,'h','e'
2.72,'h','e'
2.39,'l','e'
1.7,'l','e'
3.41,'l','e'
2.99,'l','e'
2.69,'h','e'
2.67,'h','e'
1.91,'h','e'
1.8,'h','e'
3.49,'l','e'
2.85,'h','e'
2.36,'h','e'
2.88,'h','e'
1.85,'h','e'
2.14,'h','e'
2.32,'h','e'
1.91,'l','e'
3.26,'h','e'
2.51,'h','e'
2.11,'l','e'
1.72,'l','e'
2.7,'l','e'
1.61,'l','e'
1.58,'l','e'
2.13,'l','e'
2.94,'l','e'
2.59,'h','e'
2.39,'h','e'
2.91,'l','e'
3.32,'l','e'
2.37,'l','e'
3.43,'h','e'
2.8,'l','e'
2.55,'h','e'
2.75,'h','e'
2.52,'l','e'
2.27,'l','e'
2.79,'l','e'
2.48,'l','e'
1.76,'h','e'
1.88,'l','e'
2.69,'l','e'
2.89,'h','e'
2.01,'h','e'
1.96,'h','e'
3.15,'h','e'
2.59,'l','e'
3.3,'l','e'
1.57,'l','e'
2.58,'h','e'
2.53,'h','e'
2.19,'l','e'
1.93,'h','e'
2.73,'h','e'
2.18,'h','e'
2.88,'h','e'
2.09,'h','e'
3.09,'l','e'
2.28,'h','e'
2.96,'h','e'
2.01,'l','e'
2.16,'l','e'
2.67,'h','e'
2.03,'l','e'
1.68,'l','e'
1.78,'h','e'
1.77,'l','e'
2.78,'h','e'
2.25,'l','e'
2.37,'h','e'
2.04,'l','e'
1.72,'h','e'
2.3,'l','e'
2.04,'h','e'
2.36,'l','e'
2.06,'l','e'
2.93,'l','e'
2.88,'l','e'
1.34,'l','e'
2.62,'l','e'
2.04,'l','e'
3.42,'h','e'
2.42,'l','e'
2.06,'h','e'
2.06,'h','e'
2.19,'l','e'
2.29,'l','e'
2.3,'h','e'
2.56,'l','e'
2.85,'h','e'
1.97,'h','e'
3.57,'l','e'
2.87,'h','e'
1.8,'l','e'
2.27,'h','e'
2.43,'h','e'
2.73,'h','e'
2.73,'l','e'
2.46,'l','e'
2.11,'h','e'
2.4,'h','e'
2.33,'l','e'
2.15,'l','e'
1.98,'l','e'
2.62,'h','e'
2.19,'h','e'
2.7,'l','e'
2.7,'h','e'
2.85,'l','e'
2.44,'h','e'
2.65,'h','e'
1.49,'h','e'
2.54,'l','e'
3.35,'h','e'
2.65,'h','e'
1.9,'l','e'
2.59,'l','e'
3.14,'l','e'
1.82,'h','e'
2.8,'h','e'
2.7,'l','e'
2.34,'l','e'
2.16,'h','e'
2.6,'h','e'
3.26,'l','e'
2.43,'h','e'
1.95,'h','e'
2.29,'h','e'
1.75,'h','e'
3.04,'h','e'
1.82,'h','e'
2.79,'l','e'
2.76,'l','e'
1.67,'h','e'
2.86,'h','e'
2.68,'l','e'
2.26,'l','e'
3.86,'l','e'
3.31,'l','e'
1.41,'h','e'
3.33,'h','e'
2.6,'l','e'
2.74,'l','e'
2.84,'h','e'
1.53,'l','e'
3.18,'h','e'
2.75,'l','e'
3.05,'l','e'
2.03,'h','e'
2.63,'h','e'
2.38,'h','e'
2.44,'h','e'
3.41,'l','e'
1.93,'l','e'
2.4,'l','e'
2.02,'l','e'
1.98,'l','e'
3.58,'l','e'
1.87,'h','e'
2.46,'l','e'
2.54,'h','e'
2.61,'h','e'
2.21,'h','e'
2.07,'h','e'
2.3,'l','e'
1.55,'l','e'
2.1,'l','e'
2.77,'h','e'
2.14,'l','e'
3.11,'h','e'
1.7,'h','e'
2.34,'h','e'
1.91,'h','e'
3.66,'l','e'
3.24,'h','e'
2.4,'h','e'
3.37,'l','e'
1.82,'l','e'
2.36,'l','e'
2.73,'h','e'
2.05,'h','e'
2.8,'h','e'
2.32,'h','e'
2.82,'h','e'
3.24,'l','e'
2.14,'l','e'
2.96,'l','e'
2.26,'l','e'
2.31,'h','e'
1.67,'h','e'
2.72,'h','e'
1.97,'h','e'
2.37,'l','e'
2.09,'h','e'
3.59,'h','e'
3.04,'h','e'
1.75,'h','e'
2.67,'l','e'
2.22,'h','e'
3.17,'h','e'
2.38,'h','e'
2.11,'l','e'
2.35,'l','e'
2.86,'l','e'
2.94,'l','e'
2.44,'h','e'
2.56,'l','e'
1.23,'l','e'
3.45,'h','e'
2.86,'l','e'
3.76,'h','e'
3.01,'l','e'
2.67,'l','e'
1.26,'h','e'
2.39,'l','e'
2.77,'l','e'
1.95,'l','e'
2.7,'h','e'
1.87,'l','e'
2.09,'h','e'
2.03,'h','e'
1.5,'l','e'
2.04,'h','e'
2.75,'h','e'
2.6,'h','e'
2.65,'h','e'
2.08,'h','e'
1.65,'h','e'
2.5,'l','e'
2,'h','e'
1.73,'h','e'
2.41,'h','e'
2.06,'h','e'
3.52,'h','e'
2.46,'h','e'
2.33,'h','e'
2.52,'l','e'
2.1,'h','e'
2.86,'h','e'
2.59,'h','e'
1.67,'l','e'
1.87,'l','e'
2.99,'h','e'
3.03,'h','e'
3.1,'h','e'
1.77,'h','e'
2.91,'l','e'
2.49,'h','e'
2.38,'h','e'
2.53,'h','e'
2.56,'l','e'
2.65,'h','e'
3.43,'l','e'
1.94,'h','e'
2.97,'h','e'
3.84,'h','e'
3,'h','e'
2.67,'l','e'
2.45,'l','e'
2.94,'h','e'
2.33,'l','e'
2.12,'l','e'
2.38,'h','e'
2.28,'l','e'
2.95,'h','e'
3.25,'h','e'
2.57,'h','e'
2.35,'h','e'
2.82,'l','e'
2.02,'h','e'
2.76,'l','e'
3.05,'l','e'
2.73,'l','e'
2.06,'l','e'
2.5,'l','e'
2.53,'l','e'
2.66,'l','e'
1.96,'l','e'
2.84,'l','e'
2.2,'l','e'
3.9,'h','e'
2.76,'l','e'
2.38,'l','e'
2.99,'l','e'
2.61,'l','e'
1.57,'l','e'
1.71,'l','e'
2.72,'h','e'
2.53,'h','e'
2.35,'h','e'
2.24,'h','e'
2.92,'l','e'
2.74,'l','e'
1.45,'d','e'
2.56,'d','e'
3.48,'d','e'
2.43,'d','e'
3.37,'d','e'
2.58,'d','e'
2.39,'d','e'
2.15,'d','e'
2.34,'d','e'
2.77,'d','e'
2.59,'d','e'
1.46,'d','e'
2.47,'d','e'
2.76,'d','e'
3.39,'d','e'
2.29,'d','e'
2.99,'d','e'
2.33,'d','e'
1.39,'d','e'
2.85,'d','e'
2.28,'d','e'
2.6,'d','e'
3.09,'d','e'
3.26,'d','e'
2.43,'d','e'
3.03,'d','e'
2.36,'d','e'
3.19,'d','e'
1.83,'d','e'
2.62,'d','e'
2.54,'d','e'
2.09,'d','e'
3,'d','e'
2.43,'d','e'
2.82,'d','e'
1.78,'d','e'
2.83,'d','e'
2.35,'d','e'
2.5,'d','e'
2.4,'d','e'
3.87,'d','e'
2.66,'d','e'
1.99,'d','e'
2.2,'d','e'
2.23,'d','e'
1.88,'d','e'
2.91,'d','e'
3.37,'d','e'
1.52,'d','e'
1.52,'d','e'
2.62,'d','e'
3.11,'d','e'
1.52,'d','e'
2.7,'d','e'
2.81,'d','e'
2.45,'d','e'
2.64,'d','e'
2.82,'d','e'
2.18,'d','e'
3.25,'d','e'
2.71,'d','e'
2.41,'d','e'
2.95,'d','e'
2.64,'d','e'
3.18,'d','e'
2.07,'d','e'
2.21,'d','e'
2.74,'d','e'
2.6,'d','e'
2.05,'d','e'
2.36,'d','e'
2.03,'d','e'
3.25,'d','e'
1.97,'d','e'
2.77,'d','e'
2.44,'d','e'
2.41,'d','e'
2.55,'d','e'
3.29,'d','e'
2.22,'d','e'
2.7,'d','e'
2.2,'d','e'
3.27,'d','e'
2.4,'d','e'
3.11,'d','e'
2.35,'d','e'
2.85,'d','e'
1.82,'d','e'
1.49,'d','e'
2.59,'d','e'
2.86,'d','e'
1.41,'d','e'
2.27,'d','e'
2.59,'d','e'
2.66,'d','e'
3.7,'d','e'
2.56,'d','e'
2.43,'d','e'
2.62,'d','e'
2.21,'d','e'
2.47,'d','e'
1.96,'d','e'
2.32,'d','e'
3.12,'d','e'
2.97,'d','e'
1.3,'d','e'
1.87,'d','e'
2.54,'d','e'
2.19,'d','e'
2.44,'d','e'
2.17,'d','e'
2.92,'d','e'
3.29,'d','e'
2.62,'d','e'
2.58,'d','e'
3.17,'d','e'
2.86,'d','e'
3.02,'d','e'
2.76,'d','e'
2.92,'d','e'
2.91,'d','e'
2.04,'d','e'
2.15,'d','e'
2.25,'d','e'
2.49,'d','e'
3.16,'d','e'
1.9,'d','e'
3.33,'d','e'
2.17,'d','e'
2.92,'d','e'
2.18,'d','e'
1.72,'d','e'
1.68,'d','e'
2.07,'d','e'
3.24,'d','e'
2.36,'d','e'
2.29,'d','e'
1.96,'d','e'
1.63,'d','e'
2.49,'d','e'
2.13,'d','e'
2.21,'d','e'
1.59,'d','e'
3.26,'d','e'
2.5,'d','e'
2.37,'d','e'
2.85,'d','e'
2.54,'d','e'
2.39,'d','e'
2.35,'d','e'
2.39,'d','e'
3.01,'d','e'
2.24,'d','e'
2.16,'d','e'
2.69,'d','e'
2.31,'d','e'
2.88,'d','e'
3.31,'d','e'
2.88,'d','e'
3.22,'d','e'
3.14,'d','e'
2.5,'d','e'
3.28,'d','e'
2.46,'d','e'
1.56,'d','e'
2.21,'d','e'
3.08,'d','e'
1.86,'d','e'
1.14,'d','e'
2.57,'d','e'
2.59,'d','e'
3.26,'d','e'
2.11,'d','e'
1.95,'d','e'
2.18,'d','e'
2.3,'d','e'
2.99,'d','e'
2.37,'d','e'
1.8,'d','e'
2.62,'d','e'
1.83,'d','e'
1.38,'d','e'
2.63,'d','e'
1.86,'d','e'
2.23,'d','e'
2.63,'d','e'
1.99,'d','e'
1.97,'d','e'
2.89,'d','e'
2.42,'d','e'
3.07,'d','e'
2.27,'d','e'
2.07,'d','e'
2.13,'d','e'
2.12,'d','e'
3.12,'d','e'
2.37,'d','e'
3.45,'d','e'
1.77,'d','e'
1.98,'d','e'
1.79,'d','e'
2.38,'d','e'
2.4,'d','e'
2.74,'d','e'
3.07,'d','e'
2.45,'d','e'
2.9,'d','e'
2.6,'d','e'
3.32,'d','e'
3.12,'d','e'
2.58,'d','e'
2,'d','e'
3.07,'d','e'
1.99,'d','e'
2.47,'d','e'
1.22,'d','e'
1.62,'d','e'
3.13,'d','e'
2.66,'d','e'
3.02,'d','e'
2.6,'d','e'
2.62,'d','e'
3.2,'d','e'
3.87,'d','e'
1.56,'d','e'
2.34,'d','e'
2.61,'d','e'
2.83,'d','e'
2.19,'d','e'
2.95,'d','e'
2.28,'d','e'
2.44,'d','e'
2.62,'d','e'
3.3,'d','e'
2.24,'d','e'
2.6,'d','e'
2.93,'d','e'
3.43,'d','e'
2.36,'d','e'
1.88,'d','e'
2.38,'d','e'
2.98,'d','e'
2.42,'d','e'
2.03,'d','e'
2.01,'d','e'
1.88,'d','e'
2.63,'d','e'
1.7,'d','e'
2.64,'d','e'
2.17,'d','e'
2.53,'d','e'
2.3,'d','e'
1.81,'d','e'
2.05,'d','e'
2.47,'d','e'
2.01,'d','e'
2.67,'d','e'
2.66,'d','e'
2.81,'d','e'
2.58,'d','e'
3.2,'d','e'
3.19,'d','e'
2.56,'d','e'
3.31,'d','e'
2.02,'d','e'
2.95,'d','e'
2.07,'d','e'
2.51,'d','e'
3.74,'d','e'
2.78,'d','e'
2.63,'d','e'
2.86,'d','e'
2.52,'d','e'
2.47,'d','e'
1.73,'d','e'
2.6,'d','e'
2.86,'d','e'
2.56,'d','e'
3.06,'d','e'
1.84,'d','e'
2.99,'d','e'
2.57,'d','e'
3.14,'d','e'
1.67,'d','e'
2.33,'d','e'
2.48,'d','e'
2.9,'d','e'
2.83,'d','e'
2.28,'d','e'
2.77,'d','e'
2.74,'d','e'
2.32,'d','e'
2.42,'d','e'
3.05,'d','e'
1.62,'d','e'
2.39,'d','e'
1.73,'d','e'
2.22,'d','e'
2.09,'d','e'
1.48,'d','e'
2.25,'d','e'
1.86,'d','e'
2.44,'d','e'
2.88,'d','e'
1.52,'d','e'
2.85,'d','e'
1.67,'d','e'
2.5,'d','e'
2.17,'d','e'
2.12,'d','e'
2.32,'d','e'
2.38,'d','e'
2.27,'d','e'
2.85,'d','e'
3.08,'d','e'
2.7,'d','e'
2.16,'d','e'
1.99,'d','e'
2.39,'d','e'
2.69,'d','e'
1.64,'d','e'
2.62,'d','e'
2.55,'d','e'
2.46,'d','e'
3.02,'d','e'
2.72,'d','e'
1.5,'d','e'
2.53,'d','e'
2.97,'d','e'
2.12,'d','e'
1.72,'d','e'
2.57,'d','e'
2.53,'d','e'
2.59,'d','e'
2.8,'d','e'
2.4,'d','e'
2.04,'d','e'
2.88,'d','e'
2.61,'d','e'
1.46,'d','e'
3.28,'d','e'
2.64,'d','e'
2.47,'d','e'
2.04,'d','e'
2.3,'d','e'
1.48,'d','e'
2.72,'d','e'
3.56,'d','e'
1.4,'d','e'
1.85,'d','e'
2.15,'d','e'
1.83,'d','e'
1.89,'d','e'
10.93,'l','e'
9.73,'l','e'
13.41,'d','e'
5.85,'l','e'
10.54,'l','e'
8.92,'l','e'
7.23,'d','e'
9.54,'d','e'
12.51,'d','e'
10.79,'l','e'
9.54,'d','e'
12.52,'d','e'
9.48,'l','e'
8.9,'l','e'
10.41,'d','e'
11.72,'l','e'
12.41,'l','e'
11.2,'l','e'
9.28,'d','e'
7.72,'d','e'
6.9,'l','e'
11.58,'l','e'
12.55,'d','e'
11.06,'l','e'
13.15,'l','e'
12.16,'d','e'
8.57,'l','e'
7.61,'d','e'
10.41,'l','e'
10.04,'l','e'
11.86,'d','e'
13.22,'l','e'
10.61,'d','e'
7.41,'d','e'
10.07,'l','e'
9.99,'l','e'
8.1,'l','e'
9.33,'l','e'
8.59,'l','e'
9.61,'l','e'
8.18,'d','e'
8.91,'l','e'
9.18,'l','e'
11.71,'l','e'
9.28,'d','e'
8.43,'d','e'
11.46,'l','e'
10.29,'d','e'
9.83,'d','e'
9.79,'l','e'
10.31,'d','e'
7.86,'d','e'
9.89,'l','e'
11.6,'l','e'
12.85,'l','e'
9.59,'d','e'
12.51,'l','e'
10.03,'l','e'
12.89,'d','e'
9.95,'l','e'
9.23,'d','e'
8.4,'l','e'
10.58,'l','e'
11.18,'l','e'
10.83,'d','e'
8.56,'d','e'
11.77,'l','e'
11.27,'d','e'
12.11,'d','e'
11.15,'d','e'
7.38,'l','e'
8.44,'l','e'
9.63,'d','e'
11.04,'l','e'
11.5,'d','e'
9.13,'d','e'
8.39,'d','e'
12.93,'l','e'
9.95,'d','e'
7.34,'d','e'
13.69,'d','e'
9.16,'l','e'
9.72,'d','e'
10.52,'l','e'
9.37,'l','e'
11.09,'d','e'
5.99,'d','e'
10.43,'l','e'
11.75,'d','e'
10.48,'l','e'
9.94,'l','e'
10.6,'d','e'
14.17,'d','e'
10.63,'d','e'
10.91,'d','e'
10.89,'l','e'
10.67,'l','e'
9.99,'d','e'
7.02,'l','e'
10.74,'d','e'
11.15,'d','e'
8.61,'d','e'
8.95,'d','e'
9.33,'d','e'
8.21,'d','e'
11.64,'d','e'
8.27,'l','e'
11.43,'l','e'
8.39,'d','e'
10.07,'d','e'
9.3,'l','e'
9.36,'l','e'
12.4,'l','e'
11.56,'l','e'
10.77,'l','e'
9.87,'d','e'
9.86,'l','e'
10.21,'l','e'
10.45,'l','e'
9.09,'d','e'
10.44,'d','e'
12.35,'d','e'
12.57,'d','e'
11.74,'l','e'
10.73,'l','e'
6.67,'l','e'
8.66,'l','e'
9.06,'l','e'
6.44,'l','e'
8.67,'l','e'
7.68,'l','e'
10,'d','e'
8.54,'d','e'
9.21,'d','e'
9.97,'d','e'
11.29,'d','e'
14.75,'l','e'
9.67,'l','e'
10.04,'l','e'
6.75,'d','e'
10.95,'l','e'
10.6,'l','e'
13.41,'l','e'
7.83,'d','e'
10.87,'l','e'
10.51,'l','e'
10.93,'d','e'
7.79,'l','e'
11.34,'d','e'
9.2,'l','e'
11.19,'d','e'
11.54,'l','e'
7.69,'l','e'
9.82,'d','e'
8.62,'l','e'
8.89,'d','e'
8.54,'d','e'
10.9,'l','e'
6.58,'d','e'
9.37,'d','e'
9.9,'d','e'
11.4,'l','e'
10.23,'l','e'
13.1,'l','e'
7.85,'d','e'
7.38,'l','e'
10.15,'d','e'
11.63,'l','e'
9.28,'l','e'
8.02,'d','e'
9.93,'d','e'
11.33,'l','e'
10.83,'d','e'
7.72,'l','e'
8.36,'l','e'
11.27,'l','e'
6.92,'d','e'
10.1,'d','e'
13.24,'l','e'
11.63,'d','e'
9,'l','e'
9.16,'l','e'
11.61,'l','e'
9.97,'d','e'
10.07,'d','e'
5.91,'l','e'
10.14,'d','e'
13.82,'l','e'
11.63,'d','e'
11.4,'l','e'
8.83,'d','e'
11.52,'d','e'
7.86,'l','e'
8.42,'d','e'
6.27,'l','e'
9.81,'d','e'
10.13,'d','e'
5.92,'l','e'
7.93,'l','e'
9.3,'d','e'
9.7,'l','e'
13.77,'l','e'
10.24,'l','e'
8.81,'l','e'
13.17,'l','e'
11.09,'l','e'
10.03,'l','e'
8.64,'d','e'
9.88,'d','e'
10.41,'d','e'
9.06,'d','e'
10.59,'d','e'
10.92,'d','e'
10.23,'d','e'
9.86,'d','e'
9.08,'l','e'
8.18,'l','e'
10.51,'l','e'
10.72,'l','e'
11.18,'d','e'
8.61,'l','e'
9.87,'l','e'
8.79,'d','e'
8.99,'d','e'
14.11,'d','e'
10.99,'l','e'
8.53,'d','e'
7.04,'d','e'
11.43,'d','e'
8.18,'l','e'
9.3,'d','e'
8.53,'l','e'
9.4,'d','e'
11.8,'l','e'
7.49,'l','e'
10.62,'l','e'
8.34,'d','e'
11,'l','e'
6.86,'d','e'
9.21,'l','e'
9.43,'d','e'
10.85,'d','e'
9.77,'d','e'
7.32,'d','e'
12.8,'l','e'
9.62,'l','e'
7.74,'d','e'
8.69,'d','e'
7.83,'l','e'
10.82,'d','e'
11.7,'l','e'
10.35,'d','e'
6.75,'d','e'
9.58,'d','e'
10.99,'d','e'
11.13,'d','e'
14.45,'l','e'
11.46,'l','e'
12,'l','e'
13.11,'l','e'
10.34,'d','e'
10.52,'l','e'
9.48,'l','e'
11.84,'d','e'
9.8,'d','e'
10.76,'d','e'
9.83,'l','e'
9.67,'l','e'
7.95,'d','e'
11.87,'l','e'
6.65,'d','e'
7.54,'d','e'
12.67,'d','e'
11.02,'l','e'
10.91,'d','e'
8.6,'d','e'
9.11,'d','e'
10.64,'l','e'
10.92,'l','e'
11.12,'d','e'
8.16,'l','e'
11.35,'d','e'
9.62,'d','e'
9.34,'l','e'
10.5,'l','e'
8.58,'d','e'
9.26,'d','e'
9.29,'l','e'
10.71,'d','e'
11.65,'l','e'
10.67,'l','e'
12.19,'d','e'
10.64,'d','e'
10.38,'d','e'
8.41,'l','e'
7.63,'l','e'
11.03,'d','e'
6.74,'d','e'
10.45,'l','e'
7.44,'l','e'
9.73,'d','e'
9.31,'l','e'
6.08,'l','e'
7.16,'d','e'
6.11,'d','e'
11.51,'d','e'
11.75,'d','e'
7.16,'d','e'
13.84,'d','e'
8.84,'d','e'
9.87,'l','e'
10.7,'d','e'
10.55,'d','e'
5.8,'d','e'
10.82,'d','e'
9.46,'l','e'
10.96,'l','e'
7.21,'l','e'
8.98,'d','e'
9.47,'d','e'
7.15,'l','e'
9.94,'l','e'
7.06,'l','e'
10.6,'d','e'
11.38,'l','e'
10.07,'d','e'
8.77,'d','e'
8.43,'d','e'
10.44,'d','e'
11.17,'l','e'
12.26,'d','e'
12.45,'d','e'
10.32,'l','e'
10.28,'l','e'
8.99,'d','e'
10.66,'d','e'
10.14,'l','e'
10.48,'d','e'
11.38,'d','e'
8.61,'d','e'
10.71,'d','e'
8.93,'l','e'
9.95,'d','e'
10.43,'l','e'
11.01,'l','e'
10.39,'d','e'
10.68,'l','e'
9.99,'l','e'
9.12,'l','e'
9.84,'d','e'
8.45,'l','e'
6.46,'d','e'
11.1,'l','e'
9.29,'d','e'
6.78,'g','e'
8.07,'d','e'
9.3,'d','e'
9.62,'g','e'
10.2,'d','e'
8.89,'d','e'
11.12,'d','e'
8.43,'g','e'
8.96,'d','e'
10.36,'g','e'
8.85,'g','e'
9.57,'g','e'
8.64,'g','e'
9.39,'g','e'
9.1,'g','e'
8.47,'g','e'
6.91,'d','e'
9.01,'g','e'
6.81,'g','e'
9.56,'d','e'
6.98,'g','e'
7.81,'d','e'
7.6,'d','e'
9.46,'g','e'
8.14,'d','e'
8.97,'g','e'
11.24,'d','e'
9.54,'g','e'
11.39,'g','e'
7.91,'d','e'
9.83,'d','e'
8.48,'d','e'
8.24,'d','e'
8.86,'g','e'
8.82,'g','e'
7.24,'d','e'
8.18,'g','e'
5.1,'g','e'
9.76,'d','e'
10.16,'d','e'
8.4,'d','e'
6.28,'g','e'
9.67,'d','e'
8,'d','e'
9.58,'g','e'
8.19,'g','e'
9.04,'g','e'
9.49,'g','e'
10.01,'g','e'
7.63,'g','e'
7.8,'d','e'
9.11,'g','e'
6.72,'g','e'
9.69,'d','e'
9.52,'g','e'
8.2,'g','e'
6.79,'g','e'
7.44,'g','e'
10.93,'g','e'
8.62,'d','e'
8.36,'g','e'
9.85,'g','e'
6.96,'d','e'
7.72,'g','e'
7.69,'g','e'
9.9,'g','e'
8.39,'g','e'
9.45,'g','e'
6.48,'g','e'
8.95,'d','e'
9.68,'g','e'
10.05,'g','e'
7.35,'d','e'
8.89,'d','e'
7.75,'d','e'
7.05,'d','e'
8.43,'d','e'
8.28,'g','e'
8.83,'g','e'
8.25,'g','e'
7.66,'g','e'
8.72,'d','e'
8.69,'d','e'
8.58,'g','e'
8.83,'g','e'
7.46,'d','e'
7.88,'d','e'
10.82,'d','e'
8.42,'g','e'
6.38,'g','e'
8.98,'g','e'
7.7,'d','e'
6.69,'d','e'
9.03,'g','e'
8.58,'g','e'
8.95,'g','e'
7.22,'g','e'
9.03,'d','e'
8.42,'d','e'
10.93,'d','e'
9.08,'g','e'
8.84,'d','e'
7.27,'d','e'
9.13,'d','e'
9.82,'g','e'
9.27,'d','e'
8.16,'g','e'
9.7,'d','e'
8.06,'d','e'
8.69,'d','e'
8.42,'d','e'
9.63,'d','e'
8.9,'d','e'
6.8,'d','e'
9.19,'d','e'
7.93,'g','e'
9.24,'d','e'
8.4,'g','e'
7.43,'g','e'
8.02,'g','e'
9.25,'d','e'
8.11,'d','e'
8.3,'g','e'
10.58,'g','e'
7.53,'d','e'
8.3,'d','e'
8.31,'d','e'
10.23,'g','e'
9.03,'g','e'
7.61,'g','e'
8.39,'d','e'
8.52,'g','e'
9.24,'g','e'
8.67,'g','e'
8.89,'g','e'
6.34,'g','e'
6.51,'g','e'
10.04,'d','e'
8.12,'d','e'
8.89,'g','e'
7.98,'g','e'
7.17,'d','e'
10.97,'d','e'
10.67,'g','e'
6.07,'d','e'
9.19,'g','e'
9.22,'g','e'
8.49,'d','e'
6.58,'g','e'
10.66,'d','e'
8.26,'g','e'
9.63,'d','e'
9.17,'d','e'
7.78,'d','e'
8.15,'d','e'
9,'d','e'
9.8,'g','e'
9.59,'g','e'
10.11,'g','e'
9.4,'d','e'
8.56,'d','e'
6.54,'g','e'
8.55,'d','e'
8.25,'g','e'
7.7,'d','e'
9.59,'d','e'
5.01,'g','e'
8.56,'g','e'
8.69,'g','e'
7.96,'g','e'
6.86,'g','e'
8.63,'g','e'
9.21,'d','e'
8.24,'g','e'
8.74,'d','e'
8.36,'d','e'
6.29,'g','e'
9.91,'g','e'
7.34,'d','e'
7.63,'g','e'
10.83,'g','e'
9.12,'g','e'
8.26,'d','e'
8.73,'g','e'
9.34,'d','e'
9.76,'d','e'
7.31,'d','e'
8.86,'d','e'
9.04,'g','e'
6.85,'d','e'
10.82,'d','e'
8.56,'d','e'
8.46,'g','e'
8.21,'d','e'
5.34,'d','e'
8.27,'g','e'
9.39,'g','e'
8.72,'d','e'
8.97,'g','e'
8.91,'g','e'
6.89,'d','e'
9.54,'g','e'
8.28,'d','e'
6.53,'d','e'
10.45,'g','e'
5.5,'d','e'
9.81,'g','e'
8.61,'d','e'
9.02,'g','e'
7.6,'d','e'
7.16,'g','e'
9.88,'d','e'
10.09,'d','e'
7.68,'g','e'
9.41,'g','e'
9.6,'g','e'
7.53,'g','e'
10.75,'g','e'
5.81,'g','e'
9.52,'d','e'
10.18,'d','e'
7.04,'g','e'
12.26,'g','e'
9.73,'g','e'
6.2,'g','e'
7.88,'g','e'
8.62,'g','e'
10.2,'g','e'
9.97,'d','e'
10.88,'g','e'
8.29,'g','e'
8.9,'g','e'
10.07,'d','e'
8.2,'d','e'
9.21,'d','e'
9.48,'g','e'
9.92,'g','e'
6.23,'g','e'
8.88,'d','e'
8.45,'d','e'
8.52,'d','e'
9.68,'g','e'
6.56,'d','e'
8.2,'d','e'
8.28,'g','e'
6.88,'d','e'
7.25,'g','e'
8.93,'d','e'
6.62,'g','e'
7.5,'d','e'
8.17,'d','e'
7.09,'d','e'
7.76,'d','e'
9.26,'g','e'
8.01,'g','e'
7.52,'g','e'
7.08,'g','e'
9.15,'g','e'
10.24,'g','e'
8.95,'d','e'
10.12,'g','e'
9.69,'d','e'
10.11,'g','e'
9.2,'g','e'
8.71,'g','e'
8.23,'g','e'
10.19,'d','e'
9.2,'g','e'
10.94,'d','e'
7.14,'g','e'
8.37,'d','e'
7.36,'g','e'
8.19,'g','e'
7.9,'d','e'
8.1,'d','e'
9.1,'d','e'
9.29,'d','e'
10.03,'d','e'
8.58,'g','e'
6.83,'d','e'
8.74,'d','e'
7.4,'g','e'
8.96,'d','e'
4.99,'d','e'
9.44,'g','e'
9.51,'g','e'
8.91,'d','e'
7.06,'d','e'
8.32,'d','e'
8.86,'d','e'
8.6,'g','e'
7.39,'g','e'
6.65,'g','e'
7.69,'g','e'
7.6,'g','e'
8.04,'g','e'
7.43,'d','e'
7.54,'d','e'
7.52,'g','e'
8.16,'d','e'
7.83,'g','e'
7.29,'d','e'
9.16,'g','e'
7.17,'g','e'
9.08,'d','e'
8.14,'d','e'
6.21,'g','e'
9.7,'g','e'
8.98,'d','e'
8.74,'g','e'
7.82,'d','e'
8.36,'d','e'
7.85,'d','e'
9.3,'d','e'
7.86,'d','e'
10.96,'g','e'
7.02,'d','e'
6.54,'g','e'
6.74,'d','e'
10.08,'d','e'
8.21,'g','e'
7.67,'d','e'
8.81,'d','e'
7.6,'g','e'
7.39,'d','e'
8.79,'d','e'
9.49,'g','e'
8.08,'d','e'
8.18,'g','e'
8.82,'d','e'
8.04,'d','e'
7.34,'g','e'
9.29,'g','e'
8.71,'d','e'
8.78,'g','e'
7.94,'d','e'
9.36,'g','e'
8.96,'d','e'
9.09,'g','e'
9.73,'d','e'
6.26,'g','e'
7.81,'g','e'
11.59,'d','e'
8.19,'d','e'
7.82,'g','e'
8.17,'d','e'
9.54,'d','e'
8.58,'g','e'
10.55,'d','e'
7.55,'g','e'
8.15,'g','e'
9.61,'g','e'
17.37,'l','e'
13.96,'d','e'
17.05,'l','e'
14.04,'d','e'
15.44,'l','e'
15.42,'d','e'
11.98,'l','e'
14.02,'l','e'
14.27,'l','e'
12.33,'d','e'
15.07,'l','e'
14.54,'d','e'
15.95,'d','e'
8.54,'d','e'
15.44,'d','e'
8.39,'l','e'
14.27,'l','e'
16.2,'d','e'
13.78,'d','e'
15.15,'d','e'
15.64,'l','e'
13.38,'d','e'
13.76,'d','e'
14.61,'d','e'
16.38,'l','e'
12.97,'d','e'
16.68,'l','e'
14.87,'d','e'
15.66,'l','e'
15.61,'d','e'
16.09,'d','e'
13.23,'d','e'
11.8,'l','e'
15,'l','e'
15.48,'d','e'
10.61,'d','e'
12.11,'d','e'
11.06,'l','e'
18.06,'l','e'
14.7,'d','e'
14,'l','e'
19.19,'l','e'
13.45,'d','e'
15.43,'d','e'
8.56,'d','e'
15.65,'d','e'
15.3,'l','e'
13.05,'d','e'
16.98,'d','e'
11.97,'l','e'
15.24,'d','e'
15.5,'l','e'
15.94,'l','e'
10.56,'l','e'
14.21,'l','e'
16.7,'d','e'
10.74,'l','e'
12.29,'d','e'
13.36,'d','e'
15.15,'l','e'
13.75,'l','e'
13.72,'d','e'
12.82,'l','e'
17.39,'d','e'
10.33,'d','e'
14.67,'l','e'
14.9,'l','e'
15.48,'d','e'
11.32,'d','e'
12.63,'d','e'
14.38,'d','e'
12.03,'d','e'
12.82,'l','e'
16.8,'l','e'
14.41,'l','e'
17.04,'d','e'
13.35,'d','e'
13.55,'l','e'
15.17,'l','e'
16.39,'l','e'
15.46,'d','e'
16.85,'d','e'
13.45,'l','e'
12.32,'d','e'
13.55,'l','e'
14.61,'d','e'
12.76,'l','e'
15.99,'l','e'
14.6,'d','e'
15.81,'d','e'
13.06,'l','e'
11.94,'d','e'
13.9,'d','e'
16.87,'d','e'
7.7,'d','e'
13.9,'l','e'
13.44,'l','e'
13.79,'d','e'
12.83,'l','e'
14.55,'d','e'
16.57,'l','e'
13.27,'l','e'
14.87,'d','e'
15.68,'d','e'
16.14,'d','e'
16.01,'l','e'
17.72,'l','e'
14.85,'l','e'
12.41,'l','e'
12.51,'d','e'
13.19,'d','e'
14.58,'d','e'
17.16,'d','e'
12.15,'l','e'
18.96,'l','e'
18.54,'l','e'
11.89,'l','e'
15.13,'l','e'
11.13,'l','e'
12.4,'d','e'
14.8,'l','e'
12.22,'d','e'
12.94,'d','e'
14.35,'l','e'
15.94,'d','e'
12.86,'l','e'
11.44,'l','e'
15.9,'l','e'
12.99,'d','e'
14.12,'d','e'
11.65,'d','e'
15.31,'d','e'
14.9,'d','e'
8.33,'d','e'
13.55,'l','e'
11.72,'l','e'
14.3,'l','e'
14.85,'l','e'
15.35,'d','e'
14,'d','e'
10.6,'l','e'
13.69,'d','e'
14.15,'d','e'
14.67,'d','e'
15.89,'d','e'
12.64,'l','e'
14.27,'l','e'
16.55,'l','e'
16.8,'d','e'
11.48,'d','e'
12.79,'d','e'
16.21,'l','e'
13.95,'d','e'
17.54,'d','e'
12.2,'l','e'
13.69,'d','e'
14.45,'d','e'
13.14,'l','e'
13.13,'d','e'
17.54,'d','e'
13.14,'l','e'
13.57,'d','e'
14.93,'l','e'
15.79,'l','e'
11.89,'l','e'
9.93,'l','e'
12.48,'l','e'
14.5,'l','e'
12.01,'d','e'
15.58,'d','e'
12.28,'l','e'
12.48,'l','e'
13.25,'l','e'
10.54,'l','e'
13.81,'l','e'
13.81,'l','e'
13.5,'d','e'
13.79,'d','e'
15.04,'d','e'
13.99,'d','e'
16,'l','e'
15.71,'l','e'
16.48,'l','e'
13.19,'l','e'
17.47,'d','e'
14.62,'l','e'
14.54,'d','e'
17.34,'l','e'
9.77,'d','e'
18.06,'l','e'
14.06,'d','e'
13.71,'l','e'
15.16,'d','e'
11.48,'l','e'
14.59,'d','e'
12.83,'d','e'
11.64,'d','e'
17.15,'l','e'
11.27,'d','e'
14.01,'l','e'
14.44,'d','e'
16.51,'l','e'
17.92,'d','e'
12.3,'d','e'
13.11,'l','e'
11.26,'d','e'
16.93,'d','e'
18.96,'l','e'
13.38,'l','e'
15.77,'d','e'
11.58,'d','e'
16.7,'d','e'
15.02,'d','e'
16.85,'d','e'
16.26,'l','e'
14.95,'l','e'
14.29,'d','e'
15.37,'d','e'
13.58,'l','e'
16.46,'l','e'
15.23,'l','e'
16.65,'l','e'
15.47,'d','e'
14.16,'l','e'
15.82,'l','e'
16.17,'d','e'
16,'d','e'
12.36,'l','e'
17.49,'d','e'
14.36,'d','e'
12.01,'d','e'
12.31,'l','e'
14.21,'l','e'
13.88,'l','e'
15.28,'l','e'
13.65,'l','e'
13.52,'d','e'
15.72,'l','e'
16.3,'l','e'
12.45,'d','e'
13.13,'d','e'
13.51,'l','e'
16.29,'l','e'
11.33,'l','e'
15.9,'d','e'
11.14,'d','e'
13.41,'d','e'
12.97,'l','e'
18.08,'l','e'
16.92,'d','e'
12.8,'d','e'
15.48,'d','e'
11.3,'d','e'
14.59,'d','e'
13.99,'d','e'
11.04,'d','e'
11.4,'d','e'
14.97,'d','e'
15.87,'l','e'
13.48,'l','e'
11.85,'d','e'
12.65,'l','e'
11.63,'l','e'
12.28,'l','e'
11.66,'l','e'
14.51,'d','e'
15.46,'l','e'
12.51,'d','e'
13.39,'d','e'
12.66,'l','e'
13,'l','e'
16.65,'l','e'
14,'l','e'
14.23,'d','e'
14.71,'l','e'
13.47,'l','e'
12.1,'l','e'
11.24,'d','e'
10.49,'l','e'
15.1,'l','e'
16.94,'d','e'
10.99,'d','e'
14.75,'l','e'
14.19,'d','e'
16.35,'l','e'
11.56,'l','e'
12.67,'d','e'
14.56,'d','e'
16.22,'d','e'
12.12,'l','e'
15.21,'d','e'
15.79,'d','e'
11.23,'d','e'
16.45,'d','e'
16.82,'l','e'
16.26,'d','e'
16.58,'d','e'
12.12,'d','e'
16.64,'d','e'
14.75,'d','e'
12.75,'d','e'
12.47,'l','e'
15.28,'l','e'
14.32,'l','e'
14.88,'d','e'
12.38,'l','e'
13.77,'l','e'
15.61,'d','e'
17.99,'l','e'
15.35,'d','e'
13.39,'l','e'
12.32,'l','e'
12.32,'l','e'
11.65,'l','e'
13.02,'l','e'
16.02,'d','e'
12.2,'l','e'
16.91,'l','e'
12.25,'l','e'
15.02,'d','e'
14.23,'l','e'
14.47,'d','e'
13.57,'d','e'
16.73,'l','e'
17.1,'d','e'
9.68,'l','e'
14.73,'l','e'
16.13,'l','e'
14.62,'l','e'
17.65,'d','e'
16.37,'d','e'
13.13,'d','e'
18.02,'l','e'
10.29,'l','e'
15,'d','e'
12.73,'l','e'
13.25,'l','e'
13.92,'d','e'
14.85,'d','e'
16.03,'d','e'
14.59,'d','e'
11.01,'l','e'
15.16,'d','e'
13.05,'l','e'
11.77,'d','e'
18.02,'l','e'
12.24,'d','e'
12.89,'d','e'
15.16,'d','e'
15.08,'d','e'
10.75,'l','e'
17.51,'d','e'
13.26,'d','e'
5.72,'l','p'
6.34,'d','p'
5.43,'l','p'
5.18,'d','p'
6.16,'l','p'
6.24,'d','p'
5.78,'d','p'
5.58,'l','p'
5.51,'d','p'
6.18,'l','p'
6.43,'d','p'
6.76,'l','p'
5.17,'d','p'
4.69,'l','p'
6.26,'d','p'
5.96,'d','p'
5.57,'d','p'
6.54,'l','p'
5.37,'l','p'
6.42,'l','p'
6.27,'l','p'
5.95,'d','p'
6.34,'l','p'
4.91,'d','p'
6.07,'l','p'
6.2,'d','p'
6.31,'d','p'
6.59,'l','p'
5.69,'l','p'
6.64,'d','p'
5.57,'d','p'
5.94,'d','p'
6.11,'d','p'
5.99,'d','p'
6.17,'l','p'
6.61,'l','p'
5.25,'l','p'
6.64,'l','p'
5.97,'l','p'
6.12,'l','p'
8.12,'l','p'
5.95,'l','p'
5.23,'d','p'
6.05,'l','p'
5.94,'l','p'
6.45,'d','p'
6.23,'l','p'
6.11,'d','p'
5.94,'d','p'
6.14,'l','p'
7.29,'d','p'
6.56,'d','p'
6.71,'d','p'
7.18,'l','p'
6.81,'d','p'
6.74,'d','p'
5.77,'l','p'
5.6,'l','p'
6.26,'l','p'
5.46,'l','p'
5.9,'l','p'
6.46,'l','p'
5.24,'d','p'
5.2,'l','p'
4.5,'l','p'
6.58,'l','p'
4.47,'l','p'
6.26,'l','p'
6.04,'l','p'
4.69,'d','p'
7.04,'d','p'
6.4,'l','p'
5.67,'l','p'
4.7,'l','p'
5.79,'d','p'
5.17,'l','p'
6.19,'l','p'
5.71,'l','p'
6.62,'d','p'
6.69,'d','p'
5.3,'d','p'
6.13,'l','p'
6.11,'d','p'
6.25,'l','p'
6.87,'d','p'
6.61,'l','p'
5.48,'d','p'
4.95,'l','p'
6.44,'l','p'
5.01,'d','p'
7.07,'d','p'
6.06,'d','p'
5.5,'l','p'
5.46,'d','p'
7.21,'d','p'
7.24,'l','p'
6.26,'d','p'
5.72,'d','p'
6.06,'l','p'
5.45,'d','p'
6.05,'d','p'
6.68,'d','p'
6.32,'l','p'
4.72,'l','p'
5.51,'d','p'
5.4,'d','p'
5.22,'l','p'
6.8,'d','p'
6.55,'d','p'
6.12,'d','p'
5.41,'l','p'
6.05,'d','p'
5.85,'d','p'
6.61,'l','p'
6.56,'l','p'
5.91,'d','p'
5.41,'d','p'
7.59,'d','p'
6.32,'l','p'
5.49,'d','p'
5.71,'l','p'
6.07,'l','p'
5.32,'l','p'
6.35,'l','p'
6.81,'d','p'
6.37,'l','p'
5.11,'d','p'
6.55,'l','p'
6.19,'d','p'
5.27,'d','p'
6.78,'l','p'
5.82,'l','p'
7.25,'d','p'
6.75,'l','p'
6.79,'l','p'
4.71,'l','p'
5.3,'d','p'
5.52,'l','p'
6.18,'l','p'
5.9,'d','p'
5.81,'l','p'
5.44,'d','p'
6.47,'l','p'
6.75,'d','p'
5.59,'l','p'
5.82,'d','p'
5.63,'d','p'
6.57,'d','p'
5.67,'l','p'
6.4,'l','p'
6.86,'d','p'
6.15,'d','p'
5.74,'l','p'
6.45,'d','p'
6.35,'d','p'
5.65,'l','p'
6.43,'l','p'
6.6,'l','p'
6.8,'d','p'
5.09,'d','p'
6.83,'d','p'
5.39,'d','p'
4.9,'l','p'
5.82,'d','p'
5.75,'l','p'
6.38,'l','p'
4.65,'l','p'
5.99,'l','p'
5.44,'l','p'
6.06,'l','p'
7.14,'d','p'
6.64,'l','p'
5.9,'l','p'
5.66,'d','p'
4.81,'d','p'
5.08,'d','p'
4.78,'d','p'
4.65,'l','p'
6.27,'l','p'
5.07,'l','p'
6.15,'d','p'
6.31,'l','p'
6.99,'d','p'
5.53,'l','p'
7.17,'l','p'
6,'l','p'
5.35,'d','p'
7.79,'d','p'
5.82,'d','p'
6.32,'l','p'
5.76,'l','p'
5.91,'d','p'
5.51,'l','p'
4.94,'l','p'
6.05,'l','p'
5.8,'l','p'
5.1,'d','p'
6.64,'l','p'
7.09,'l','p'
6.5,'d','p'
7.03,'l','p'
6.05,'l','p'
6.38,'d','p'
5.69,'d','p'
6.58,'l','p'
6.82,'d','p'
5.29,'l','p'
4.9,'l','p'
6.96,'d','p'
5.83,'l','p'
6.21,'l','p'
5.59,'l','p'
6.22,'l','p'
5.83,'l','p'
6.36,'l','p'
7.71,'l','p'
6.77,'d','p'
6.53,'d','p'
5.22,'l','p'
7.11,'l','p'
6.42,'l','p'
6.49,'d','p'
5.31,'l','p'
6.08,'d','p'
5.06,'d','p'
6.13,'d','p'
6.05,'d','p'
6.19,'l','p'
7.3,'l','p'
6.53,'l','p'
5.99,'l','p'
5.91,'l','p'
5.4,'l','p'
6.22,'l','p'
5.11,'d','p'
5.21,'l','p'
5.98,'d','p'
6.21,'l','p'
6.54,'d','p'
5.86,'d','p'
6.47,'d','p'
7.03,'l','p'
6.03,'d','p'
6,'d','p'
5.65,'d','p'
6.32,'l','p'
5.57,'d','p'
5.81,'l','p'
5.88,'l','p'
4.38,'d','p'
6.23,'l','p'
6.33,'l','p'
5.56,'d','p'
6.46,'d','p'
5.78,'l','p'
6.93,'l','p'
4.7,'l','p'
6.44,'d','p'
6.28,'d','p'
6.71,'d','p'
5.47,'l','p'
5.8,'l','p'
7.05,'l','p'
5.87,'l','p'
6.2,'d','p'
6.28,'d','p'
6.32,'d','p'
5.8,'d','p'
6.97,'l','p'
5.58,'d','p'
6.04,'l','p'
6.21,'l','p'
6.83,'l','p'
5.91,'d','p'
5.78,'l','p'
7.02,'l','p'
6.32,'d','p'
6.46,'l','p'
6.17,'l','p'
7.45,'l','p'
5.56,'l','p'
5.98,'d','p'
5.36,'d','p'
5.94,'d','p'
6.26,'l','p'
5.77,'l','p'
5.94,'l','p'
6.32,'d','p'
5.92,'d','p'
5.35,'l','p'
6.75,'l','p'
5.86,'l','p'
6.73,'d','p'
5.82,'d','p'
6.05,'l','p'
5.78,'d','p'
6.91,'d','p'
5.85,'l','p'
6.05,'l','p'
7.12,'d','p'
5.85,'d','p'
6.46,'l','p'
5.76,'l','p'
6,'l','p'
6.25,'l','p'
6.32,'l','p'
5.9,'d','p'
6.6,'d','p'
7.07,'d','p'
6.44,'l','p'
6.03,'d','p'
6.36,'l','p'
6.72,'d','p'
4.91,'l','p'
6.37,'l','p'
4.78,'d','p'
6.42,'d','p'
5.64,'l','p'
6.84,'l','p'
4.76,'d','p'
5.75,'l','p'
6.3,'l','p'
6.45,'l','p'
4.83,'l','p'
6.71,'l','p'
5.74,'d','p'
6.53,'d','p'
5.34,'l','p'
4.91,'d','p'
6.1,'l','p'
6.1,'d','p'
6.59,'l','p'
6.17,'d','p'
6.18,'l','p'
6.12,'d','p'
6.72,'l','p'
5.66,'d','p'
6.23,'l','p'
6.53,'l','p'
6.46,'d','p'
6.56,'l','p'
6.29,'l','p'
4.62,'l','p'
5.92,'d','p'
6.36,'l','p'
6.53,'l','p'
5.66,'l','p'
4.8,'d','p'
5.8,'l','p'
6.22,'l','p'
5.49,'l','p'
4.5,'d','p'
6.31,'l','p'
6.91,'d','e'
6.88,'h','e'
5.9,'h','e'
6.86,'h','e'
6.03,'h','e'
6.88,'h','e'
5.58,'h','e'
5.91,'d','e'
5.72,'l','e'
6.1,'d','e'
6.87,'l','e'
6.35,'l','e'
5.95,'h','e'
6.26,'d','e'
5.73,'d','e'
7.37,'l','e'
7.24,'h','e'
6.37,'h','e'
5.2,'h','e'
6.97,'l','e'
5.62,'l','e'
5.18,'h','e'
5.21,'h','e'
5.75,'d','e'
7.01,'l','e'
6.57,'l','e'
5.78,'h','e'
5.53,'d','e'
7.06,'l','e'
5.63,'l','e'
6.34,'d','e'
5.69,'d','e'
6.39,'d','e'
6.01,'d','e'
6.8,'d','e'
6.16,'d','e'
7.51,'h','e'
6.49,'l','e'
5.85,'h','e'
5.44,'l','e'
5.34,'l','e'
4.82,'l','e'
7.14,'h','e'
5.5,'l','e'
5.29,'h','e'
6.64,'h','e'
6.63,'h','e'
6.18,'d','e'
5.96,'l','e'
6.59,'h','e'
5.71,'l','e'
5.01,'h','e'
5.15,'l','e'
6.39,'d','e'
6.21,'d','e'
5.45,'d','e'
6.59,'d','e'
6.05,'d','e'
6.71,'d','e'
5.74,'d','e'
8.4,'h','e'
6.59,'d','e'
5.16,'h','e'
7.02,'l','e'
7.02,'h','e'
5.12,'l','e'
5.97,'d','e'
5.21,'l','e'
6.25,'h','e'
6.91,'h','e'
5.62,'l','e'
7.35,'d','e'
5.77,'l','e'
6.32,'h','e'
6.15,'h','e'
7.03,'l','e'
6.45,'h','e'
6.41,'h','e'
5.18,'l','e'
5.88,'l','e'
6.26,'d','e'
5.99,'h','e'
6.35,'d','e'
4.38,'h','e'
6.24,'h','e'
5.86,'l','e'
6.03,'l','e'
5.21,'d','e'
5.2,'h','e'
5.24,'d','e'
5.45,'h','e'
5.72,'l','e'
6.19,'l','e'
4.12,'h','e'
5.83,'d','e'
5.97,'l','e'
5.56,'l','e'
6.35,'l','e'
5.73,'d','e'
6.81,'d','e'
6.57,'d','e'
6.35,'h','e'
6.03,'l','e'
6.02,'l','e'
5.93,'d','e'
5.96,'l','e'
6.07,'h','e'
5.21,'d','e'
6.78,'l','e'
6.53,'h','e'
5.05,'l','e'
6.51,'d','e'
6.04,'l','e'
5.16,'h','e'
5.54,'d','e'
6.91,'d','e'
5.58,'d','e'
5.7,'d','e'
6.11,'h','e'
5.45,'l','e'
6.76,'l','e'
4.97,'d','e'
4.6,'d','e'
6.18,'d','e'
5.27,'h','e'
5.35,'l','e'
6.37,'h','e'
7.09,'l','e'
6.5,'h','e'
6,'h','e'
5.96,'d','e'
5.66,'d','e'
7.17,'l','e'
6.82,'h','e'
7.47,'l','e'
5.62,'h','e'
6.52,'d','e'
5.24,'l','e'
6.35,'h','e'
6.5,'l','e'
5.84,'d','e'
5.01,'h','e'
5.66,'l','e'
5.96,'h','e'
5.75,'d','e'
5.36,'l','e'
5.75,'l','e'
6.04,'d','e'
6.57,'d','e'
5.37,'d','e'
6.34,'d','e'
6.46,'h','e'
6.94,'l','e'
5.94,'l','e'
5.66,'l','e'
4.94,'d','e'
6.95,'h','e'
6.86,'l','e'
6.59,'l','e'
6.47,'h','e'
6.35,'l','e'
4.91,'h','e'
6.65,'h','e'
5.22,'l','e'
5.75,'h','e'
5.64,'d','e'
5.92,'d','e'
5.87,'l','e'
5.04,'d','e'
4.26,'h','e'
6.24,'h','e'
6.16,'l','e'
6.86,'h','e'
5.78,'d','e'
5.39,'h','e'
6.54,'l','e'
5.51,'l','e'
6.11,'d','e'
7.34,'d','e'
7.15,'d','e'
6.33,'d','e'
6.84,'l','e'
7.26,'h','e'
5.98,'h','e'
5.84,'d','e'
5.42,'l','e'
6.87,'d','e'
6.37,'l','e'
4.71,'l','e'
6,'l','e'
5.75,'d','e'
7.14,'h','e'
4.2,'l','e'
6.84,'h','e'
5.43,'l','e'
6.01,'l','e'
6.26,'d','e'
4.98,'l','e'
6.29,'d','e'
5.93,'d','e'
7.05,'h','e'
6.53,'d','e'
5.49,'h','e'
5.38,'l','e'
6.17,'h','e'
6.36,'d','e'
5.11,'h','e'
7.13,'h','e'
6.1,'d','e'
6.18,'d','e'
6.4,'h','e'
4.95,'l','e'
6.36,'h','e'
6.13,'h','e'
6.12,'d','e'
5.46,'l','e'
5.44,'h','e'
6.04,'l','e'
5.62,'d','e'
4.91,'l','e'
5.85,'h','e'
6.72,'l','e'
7.33,'h','e'
5.85,'h','e'
4.94,'l','e'
6.06,'h','e'
6.09,'d','e'
5.34,'h','e'
5.46,'l','e'
6.05,'d','e'
6.07,'l','e'
5,'h','e'
6.72,'l','e'
7.05,'d','e'
5.72,'l','e'
5.98,'d','e'
5.99,'h','e'
5.27,'d','e'
6.28,'l','e'
5.41,'d','e'
6.56,'d','e'
4.93,'h','e'
5.81,'h','e'
5.49,'d','e'
6.67,'l','e'
5.43,'d','e'
6.93,'h','e'
5.5,'h','e'
5.5,'h','e'
5.07,'d','e'
6.06,'l','e'
5.14,'l','e'
6.1,'d','e'
6.01,'l','e'
5.88,'l','e'
4.72,'h','e'
6.1,'h','e'
6.37,'d','e'
6.56,'l','e'
7.17,'h','e'
5.36,'h','e'
6.06,'d','e'
6.63,'h','e'
6.59,'h','e'
5.59,'d','e'
4.51,'d','e'
6.39,'l','e'
6.04,'d','e'
6.7,'d','e'
5.63,'l','e'
6.3,'l','e'
5.64,'d','e'
4.44,'d','e'
5.19,'l','e'
7.43,'d','e'
5.74,'l','e'
5.97,'h','e'
4.93,'l','e'
6.58,'l','e'
6.68,'h','e'
6.6,'l','e'
6.74,'l','e'
5.47,'l','e'
6.31,'l','e'
6.3,'d','e'
4.98,'d','e'
5.11,'h','e'
6.23,'d','e'
5.73,'l','e'
5.27,'h','e'
6.36,'l','e'
3.87,'h','e'
6.46,'h','e'
5.92,'d','e'
6.8,'l','e'
6.4,'l','e'
5.65,'h','e'
5.86,'l','e'
5.72,'d','e'
6.59,'h','e'
6.59,'d','e'
5.92,'d','e'
7.18,'l','e'
5.17,'h','e'
6.04,'h','e'
6,'l','e'
5.81,'l','e'
7.06,'h','e'
6.3,'d','e'
5.59,'d','e'
6.3,'l','e'
5.46,'d','e'
6.24,'d','e'
5.22,'d','e'
5.45,'d','e'
5.88,'l','e'
6.76,'d','e'
6.35,'h','e'
5.91,'d','e'
6.74,'h','e'
6.56,'l','e'
5.83,'h','e'
4.95,'l','e'
6.54,'h','e'
6.68,'d','e'
6.13,'h','e'
6.32,'h','e'
6.01,'d','e'
5.12,'d','e'
6.46,'d','e'
5.8,'h','e'
5.19,'l','e'
6.31,'h','e'
4.67,'h','e'
5.08,'l','e'
5.99,'h','e'
6.41,'l','e'
6.23,'h','e'
5.96,'d','e'
6.22,'h','e'
6.63,'h','e'
6.4,'h','e'
6.69,'l','e'
6.02,'l','e'
6.52,'d','e'
5.78,'d','e'
5.57,'d','e'
5.97,'l','e'
5.59,'d','e'
6.24,'d','e'
5.96,'d','e'
6.15,'l','e'
5.64,'d','e'
4.88,'l','e'
4.76,'d','e'
4.9,'d','e'
4.35,'l','e'
4.47,'d','e'
4.69,'l','e'
3.47,'d','e'
4.51,'l','e'
5.38,'d','e'
5.03,'d','e'
4.74,'l','e'
5.29,'l','e'
4.71,'l','e'
4.87,'l','e'
4.95,'l','e'
4.56,'d','e'
4.23,'l','e'
4.14,'d','e'
4.99,'l','e'
3.97,'l','e'
4.73,'l','e'
4.63,'l','e'
4.71,'l','e'
5.23,'l','e'
4.9,'d','e'
5.26,'d','e'
4.49,'d','e'
5.62,'d','e'
4.49,'l','e'
4.28,'d','e'
4.74,'d','e'
4.52,'l','e'
3.95,'l','e'
4.3,'l','e'
4.57,'l','e'
4.35,'d','e'
4.37,'d','e'
5.21,'d','e'
4.68,'l','e'
4.43,'l','e'
4.63,'d','e'
3.84,'l','e'
4.66,'d','e'
4.14,'l','e'
4.66,'l','e'
4.39,'d','e'
4.74,'l','e'
4.73,'d','e'
4.11,'l','e'
4.83,'d','e'
4.65,'l','e'
4.26,'d','e'
4.24,'l','e'
3.96,'d','e'
5.36,'l','e'
4.31,'l','e'
4.8,'l','e'
3.94,'l','e'
4.36,'l','e'
5.24,'d','e'
4.95,'d','e'
4.77,'l','e'
4.47,'l','e'
5.28,'l','e'
4.68,'l','e'
3.96,'l','e'
5.48,'l','e'
4.45,'l','e'
5.28,'l','e'
5.51,'d','e'
4.11,'l','e'
4.7,'d','e'
4.21,'d','e'
3.14,'d','e'
4.06,'d','e'
4.83,'l','e'
4.08,'d','e'
4.57,'d','e'
4.28,'d','e'
4.39,'l','e'
5.43,'d','e'
4.37,'d','e'
5.06,'l','e'
3.54,'l','e'
4.58,'l','e'
4.43,'d','e'
4.03,'d','e'
4.56,'d','e'
4.27,'l','e'
4.13,'l','e'
4.6,'d','e'
4.83,'l','e'
3.93,'l','e'
4.83,'d','e'
2.64,'l','e'
3.66,'d','e'
4.33,'l','e'
4.31,'l','e'
3.9,'l','e'
4.55,'l','e'
4.2,'l','e'
4.78,'l','e'
5,'l','e'
5.28,'d','e'
4.56,'d','e'
4.23,'l','e'
3.87,'l','e'
4.11,'l','e'
4.66,'d','e'
4.55,'d','e'
4.57,'l','e'
3.78,'d','e'
4.47,'d','e'
4.79,'l','e'
4.9,'l','e'
3.59,'l','e'
5.43,'l','e'
4.36,'l','e'
4.33,'d','e'
4.06,'l','e'
4.72,'l','e'
2.97,'d','e'
4.22,'l','e'
4.44,'l','e'
5.14,'l','e'
4.33,'l','e'
4.5,'l','e'
3.84,'l','e'
4.65,'l','e'
4.43,'d','e'
4.17,'l','e'
4.3,'d','e'
5.38,'l','e'
4.06,'l','e'
4.66,'l','e'
4.51,'l','e'
4.78,'d','e'
4.83,'d','e'
4.22,'d','e'
4,'d','e'
4.7,'d','e'
3.85,'l','e'
4.03,'l','e'
4.7,'d','e'
4.55,'d','e'
3.91,'d','e'
4.34,'d','e'
4.31,'d','e'
4.59,'d','e'
5.09,'l','e'
5.06,'l','e'
4.16,'d','e'
4.9,'l','e'
4.1,'d','e'
3.85,'d','e'
4.87,'l','e'
4.33,'d','e'
4.66,'l','e'
4.95,'d','e'
5.05,'d','e'
4.33,'d','e'
4.32,'l','e'
4.01,'l','e'
4.87,'d','e'
4.87,'d','e'
4.43,'l','e'
4.16,'d','e'
5.26,'l','e'
4.48,'l','e'
3.97,'l','e'
3.77,'d','e'
4.32,'d','e'
4.67,'d','e'
4.39,'l','e'
4.83,'l','e'
4,'d','e'
3.37,'l','e'
4.34,'d','e'
4.96,'l','e'
4.7,'d','e'
3.92,'d','e'
4.04,'l','e'
4.26,'l','e'
4.66,'l','e'
4.09,'d','e'
4.18,'l','e'
4.53,'d','e'
3.93,'d','e'
6.1,'d','e'
4.38,'d','e'
5.16,'d','e'
3.95,'d','e'
4.93,'d','e'
4.11,'d','e'
4.96,'d','e'
5.06,'l','e'
4.78,'l','e'
4.82,'l','e'
4.67,'l','e'
3.59,'d','e'
4.73,'l','e'
4.04,'l','e'
3.26,'l','e'
4.15,'d','e'
4.99,'l','e'
4.01,'d','e'
3.97,'d','e'
3.63,'d','e'
4.06,'l','e'
4.42,'l','e'
4.8,'l','e'
5.22,'d','e'
4.46,'d','e'
4.11,'l','e'
4.75,'d','e'
3.88,'l','e'
3.59,'l','e'
4.19,'l','e'
4.29,'l','e'
4.12,'l','e'
4.74,'l','e'
3.81,'d','e'
4.54,'l','e'
4.16,'l','e'
3.91,'l','e'
4.98,'d','e'
5.08,'d','e'
4.22,'d','e'
4.07,'l','e'
4.64,'l','e'
5.66,'d','e'
4.4,'l','e'
4.42,'l','e'
4.9,'l','e'
4.62,'d','e'
3.81,'d','e'
4.12,'d','e'
4.38,'d','e'
5.35,'d','e'
4.44,'l','e'
5.03,'l','e'
4.77,'l','e'
3.82,'l','e'
4.82,'d','e'
4.28,'d','e'
4.72,'d','e'
4.74,'l','e'
4.85,'d','e'
4.13,'l','e'
4.05,'l','e'
4.48,'d','e'
4.04,'l','e'
3.74,'d','e'
4.78,'l','e'
3.94,'l','e'
4.14,'l','e'
4.59,'d','e'
5.38,'l','e'
4.56,'l','e'
5.3,'d','e'
4.87,'l','e'
4.53,'d','e'
4.97,'l','e'
4.77,'d','e'
5.04,'d','e'
5.02,'l','e'
4.67,'d','e'
4.27,'d','e'
4.57,'l','e'
3.42,'l','e'
4.7,'d','e'
4.33,'d','e'
4.53,'l','e'
3.87,'d','e'
4.98,'l','e'
3.83,'d','e'
5.33,'d','e'
4.45,'l','e'
4.38,'l','e'
4.03,'l','e'
4.41,'d','e'
4.58,'l','e'
4.7,'d','e'
4.07,'l','e'
5.49,'d','e'
5.26,'d','e'
4.02,'d','e'
4.1,'l','e'
4.64,'d','e'
3.96,'d','e'
4.1,'d','e'
4.33,'l','e'
4.7,'l','e'
4.4,'l','e'
4.33,'d','e'
5.18,'d','e'
3.56,'l','e'
4.15,'d','e'
5.48,'l','e'
5.14,'l','e'
4.9,'l','e'
4.19,'l','e'
4.02,'d','e'
4.17,'l','e'
3.84,'d','e'
4.58,'l','e'
4.42,'d','e'
4.14,'d','e'
4.59,'l','e'
4.32,'d','e'
4.59,'d','e'
3.86,'d','e'
4.46,'l','e'
4.35,'l','e'
4.17,'l','e'
5.04,'l','e'
3.59,'l','e'
3.71,'d','e'
4.59,'d','e'
5.3,'l','e'
4.78,'d','e'
4.22,'l','e'
4.65,'d','e'
4.56,'d','e'
3.98,'d','e'
4.11,'l','e'
5.75,'l','e'
3.94,'d','e'
4.08,'l','e'
4.65,'l','e'
4.93,'d','e'
4,'d','e'
4.71,'d','e'
4.28,'d','e'
3.95,'d','e'
4.62,'l','e'
4.35,'l','e'
4.59,'l','e'
4.54,'l','e'
4.66,'l','e'
4.35,'l','e'
4.2,'l','e'
3.81,'d','e'
3.38,'l','e'
4.85,'l','e'
4.12,'l','e'
4.53,'d','e'
5.49,'l','e'
5.02,'l','e'
4.16,'d','e'
4.03,'d','e'
4.78,'l','e'
4.08,'d','e'
2.83,'g','p'
2.95,'g','p'
2.69,'g','p'
3.15,'g','p'
3.16,'g','p'
2.9,'g','p'
2.99,'g','p'
3.5,'g','p'
2.72,'g','p'
2.95,'g','p'
2.83,'g','p'
2.55,'g','p'
2.58,'g','p'
2.52,'g','p'
3.48,'g','p'
3.12,'g','p'
2.64,'g','p'
2.77,'g','p'
3.48,'g','p'
3.01,'g','p'
3.16,'g','p'
2.42,'g','p'
2.4,'g','p'
2.45,'g','p'
3.36,'g','p'
2.64,'g','p'
2.82,'g','p'
2.86,'g','p'
2.94,'g','p'
2.77,'g','p'
2.35,'g','p'
2.96,'g','p'
2.78,'g','p'
2.39,'g','p'
3.53,'g','p'
2.85,'g','p'
2.87,'g','p'
3.28,'g','p'
3.94,'g','p'
3.25,'g','p'
3.36,'g','p'
2.47,'g','p'
3.26,'g','p'
3.52,'g','p'
2.73,'g','p'
3.05,'g','p'
2.64,'g','p'
2.46,'g','p'
2.89,'g','p'
3.4,'g','p'
2.97,'g','p'
3,'g','p'
2.38,'g','p'
2.68,'g','p'
2.28,'g','p'
2.98,'g','p'
2.85,'g','p'
2.78,'g','p'
3.06,'g','p'
2.75,'g','p'
3.12,'g','p'
3.43,'g','p'
3.27,'g','p'
2.8,'g','p'
2.86,'g','p'
2.55,'g','p'
3.21,'g','p'
3.01,'g','p'
3.02,'g','p'
2.44,'g','p'
2.35,'g','p'
3.39,'g','p'
3.84,'g','p'
3.12,'g','p'
2.92,'g','p'
2.84,'g','p'
2.48,'g','p'
3.11,'g','p'
3.03,'g','p'
3.54,'g','p'
3.34,'g','p'
3.34,'g','p'
3.14,'g','p'
3.13,'g','p'
2.79,'g','p'
3.09,'g','p'
2.63,'g','p'
2.58,'g','p'
2.74,'g','p'
2.95,'g','p'
2.73,'g','p'
3.1,'g','p'
3.19,'g','p'
2.92,'g','p'
2.57,'g','p'
3.15,'g','p'
3.75,'g','p'
3.17,'g','p'
3.05,'g','p'
2.91,'g','p'
3.14,'g','p'
3.32,'g','p'
2.89,'g','p'
3.15,'g','p'
2.87,'g','p'
2.51,'g','p'
2.49,'g','p'
2.58,'g','p'
3.15,'g','p'
3.15,'g','p'
3.12,'g','p'
3,'g','p'
3.21,'g','p'
2.82,'g','p'
3.34,'g','p'
3.44,'g','p'
3.4,'g','p'
2.96,'g','p'
3.47,'g','p'
2.97,'g','p'
2.79,'g','p'
2.24,'g','p'
3.19,'g','p'
2.38,'g','p'
2.94,'g','p'
2.18,'g','p'
2.81,'g','p'
3.06,'g','p'
2.67,'g','p'
3.1,'g','p'
3.04,'g','p'
2.77,'g','p'
3.17,'g','p'
3.19,'g','p'
2.72,'g','p'
3.03,'g','p'
2.45,'g','p'
3.44,'g','p'
3.2,'g','p'
2.47,'g','p'
2.64,'g','p'
2.81,'g','p'
3.16,'g','p'
2.16,'g','p'
3.09,'g','p'
2.56,'g','p'
3.14,'g','p'
3.31,'g','p'
2.85,'g','p'
3.42,'g','p'
3.13,'g','p'
3.36,'g','p'
2.87,'g','p'
3.08,'g','p'
3.18,'g','p'
2.88,'g','p'
2.99,'g','p'
2.79,'g','p'
3.23,'g','p'
2.38,'g','p'
2.97,'g','p'
2.95,'g','p'
3.19,'g','p'
2.69,'g','p'
2.9,'g','p'
2.79,'g','p'
2.5,'g','p'
3.03,'g','p'
3.41,'g','p'
2.48,'g','p'
2.55,'g','p'
2.84,'g','p'
2.87,'g','p'
2.67,'g','p'
2.45,'g','p'
2.93,'g','p'
3.19,'g','p'
2.6,'g','p'
3.22,'g','p'
3.3,'g','p'
2.34,'g','p'
2.6,'g','p'
2.46,'g','p'
2.97,'g','p'
2.81,'g','p'
3.34,'g','p'
3.04,'g','p'
3.66,'g','p'
3.33,'g','p'
2.51,'g','p'
3.18,'g','p'
2.89,'g','p'
2.77,'g','p'
3.2,'g','p'
3.57,'g','p'
2.86,'g','p'
2.74,'g','p'
3.07,'g','p'
3.44,'g','p'
2.97,'g','p'
3.12,'g','p'
2.8,'g','p'
3.2,'g','p'
2.99,'g','p'
2.7,'g','p'
3.42,'g','p'
2.55,'g','p'
2.92,'g','p'
2.94,'g','p'
3.16,'g','p'
2.87,'g','p'
2.77,'g','p'
3,'g','p'
3.03,'g','p'
3,'g','p'
3,'g','p'
3.04,'g','p'
3,'g','p'
2.36,'g','p'
2.49,'g','p'
2.99,'g','p'
3.04,'g','p'
2.41,'g','p'
3.21,'g','p'
3.03,'g','p'
2.73,'g','p'
2.83,'g','p'
3.09,'g','p'
3.58,'g','p'
3.25,'g','p'
2.67,'g','p'
3.31,'g','p'
2.93,'g','p'
2.97,'g','p'
2.98,'g','p'
2.92,'g','p'
3.25,'g','p'
3.16,'g','p'
3.67,'g','p'
2.94,'g','p'
3.21,'g','p'
2.35,'g','p'
3.22,'g','p'
3.06,'g','p'
2.61,'g','p'
3.04,'g','p'
2.81,'g','p'
3.05,'g','p'
2.57,'g','p'
2.65,'g','p'
2.81,'g','p'
2.72,'g','p'
2.65,'g','p'
3.11,'g','p'
2.72,'g','p'
3.35,'g','p'
2.6,'g','p'
3.37,'g','p'
3.33,'g','p'
2.8,'g','p'
3.15,'g','p'
2.86,'g','p'
3.46,'g','p'
2.69,'g','p'
2.66,'g','p'
2.73,'g','p'
2.8,'g','p'
3.36,'g','p'
3.02,'g','p'
2.79,'g','p'
3.05,'g','p'
3.12,'g','p'
2.92,'g','p'
2.43,'g','p'
3.67,'g','p'
2.98,'g','p'
2.68,'g','p'
3.34,'g','p'
3.14,'g','p'
3.26,'g','p'
2.43,'g','p'
3.02,'g','p'
3.62,'g','p'
3.44,'g','p'
3.05,'g','p'
2.88,'g','p'
3.19,'g','p'
2.54,'g','p'
3.31,'g','p'
2.38,'g','p'
3.41,'g','p'
2.92,'g','p'
2.73,'g','p'
3.46,'g','p'
3.14,'g','p'
2.63,'g','p'
3.1,'g','p'
3.38,'g','p'
2.87,'g','p'
2.52,'g','p'
3.04,'g','p'
2.75,'g','p'
3.08,'g','p'
2.93,'g','p'
2.79,'g','p'
2.73,'g','p'
2.69,'g','p'
2.84,'g','p'
2.59,'g','p'
2.58,'g','p'
3.37,'g','p'
2.61,'g','p'
2.88,'g','p'
3.07,'g','p'
2.24,'g','p'
3.31,'g','p'
3.33,'g','p'
3.18,'g','p'
3.34,'g','p'
2.42,'g','p'
2.63,'g','p'
2.87,'g','p'
2.38,'g','p'
3.14,'g','p'
2.71,'g','p'
3.31,'g','p'
2.31,'g','p'
2.62,'g','p'
3.36,'g','p'
2.88,'g','p'
2.54,'g','p'
3.4,'g','p'
3,'g','p'
3.2,'g','p'
3.35,'g','p'
2.47,'g','p'
2.93,'g','p'
3.64,'g','p'
3.57,'g','p'
3.53,'g','p'
3.25,'g','p'
2.63,'g','p'
3.02,'g','p'
2.96,'g','p'
3.01,'g','p'
3.1,'g','p'
2.61,'g','p'
2.49,'g','p'
2.84,'g','p'
2.56,'g','p'
2.55,'g','p'
3.16,'g','p'
2.58,'g','p'
4.77,'l','p'
3.9,'l','p'
4.71,'l','p'
4.23,'l','p'
4.91,'l','p'
3.98,'d','p'
4.92,'l','p'
4.3,'l','p'
4.33,'l','p'
4.51,'l','p'
3.97,'d','p'
4.46,'l','p'
4.35,'l','p'
4.3,'l','p'
4.16,'d','p'
4.09,'d','p'
4.21,'d','p'
4.55,'l','p'
3.66,'d','p'
4.51,'d','p'
3.64,'d','p'
3.82,'d','p'
3.42,'l','p'
4.16,'d','p'
3.91,'d','p'
4.29,'d','p'
5.07,'l','p'
4.38,'l','p'
4.65,'d','p'
5.17,'l','p'
4.52,'l','p'
4.87,'l','p'
4.46,'l','p'
4.4,'d','p'
3.67,'l','p'
4.29,'d','p'
5.28,'d','p'
4.47,'l','p'
4.86,'l','p'
4.9,'d','p'
3.95,'l','p'
4.27,'d','p'
4,'d','p'
5.4,'d','p'
3.8,'d','p'
4.63,'l','p'
4.92,'d','p'
5.65,'d','p'
4.56,'d','p'
3.9,'d','p'
5.37,'d','p'
3.27,'l','p'
4.34,'l','p'
4.95,'l','p'
4.4,'l','p'
4.22,'d','p'
5.1,'l','p'
4.18,'d','p'
4.4,'l','p'
3.92,'l','p'
4.66,'l','p'
4.61,'d','p'
4.56,'d','p'
4.51,'d','p'
4.82,'d','p'
4.41,'l','p'
4.47,'l','p'
4.15,'l','p'
4.47,'l','p'
4.58,'l','p'
4.03,'l','p'
4.44,'l','p'
4.91,'l','p'
4.5,'l','p'
5.37,'l','p'
3.8,'d','p'
4.3,'d','p'
5.45,'l','p'
5.4,'l','p'
4.33,'d','p'
4.67,'l','p'
5.71,'d','p'
4.58,'l','p'
4.26,'d','p'
4.78,'d','p'
3.98,'d','p'
5.09,'d','p'
4.2,'d','p'
5.1,'d','p'
3.88,'l','p'
5.28,'d','p'
5.35,'l','p'
5.55,'d','p'
4.36,'l','p'
4.59,'l','p'
4.51,'l','p'
5.01,'l','p'
4.59,'l','p'
4.17,'l','p'
3.91,'l','p'
4.73,'l','p'
4.34,'l','p'
4.03,'l','p'
5.06,'d','p'
5.04,'l','p'
4.07,'l','p'
4.39,'d','p'
5.15,'d','p'
4.94,'l','p'
4.61,'d','p'
4.04,'d','p'
4.71,'d','p'
4.01,'d','p'
3.17,'d','p'
4.1,'d','p'
4.45,'d','p'
4.77,'d','p'
4.32,'d','p'
5.3,'d','p'
4.58,'d','p'
4.5,'d','p'
4.6,'d','p'
4.46,'d','p'
4.97,'l','p'
3.81,'l','p'
4.48,'d','p'
4.45,'d','p'
4.51,'l','p'
4.68,'l','p'
5.21,'l','p'
4.33,'d','p'
4.71,'l','p'
3.94,'d','p'
3.68,'l','p'
4.55,'d','p'
3.7,'d','p'
4.83,'d','p'
4.91,'l','p'
4.81,'d','p'
4,'l','p'
4.46,'d','p'
4.64,'l','p'
4.22,'l','p'
4.2,'d','p'
4.87,'d','p'
4,'d','p'
4.75,'d','p'
5.05,'d','p'
4.06,'d','p'
4.91,'l','p'
4.84,'l','p'
4.9,'l','p'
5.31,'l','p'
5.26,'l','p'
4.29,'d','p'
4.27,'l','p'
3.89,'d','p'
3.94,'d','p'
5.07,'d','p'
3.81,'d','p'
4.3,'l','p'
4.81,'l','p'
4.02,'l','p'
4.87,'l','p'
4.52,'l','p'
4.36,'d','p'
4.73,'d','p'
4.97,'d','p'
4.52,'l','p'
4.47,'l','p'
4.17,'d','p'
4.49,'l','p'
3.81,'d','p'
5.03,'l','p'
4.03,'d','p'
4.62,'d','p'
4.49,'d','p'
3.85,'d','p'
5.32,'l','p'
3.83,'d','p'
4.64,'l','p'
3.95,'d','p'
3.87,'d','p'
4.39,'d','p'
4.68,'d','p'
3.95,'l','p'
3.78,'d','p'
3.88,'d','p'
4.83,'l','p'
4.54,'l','p'
4.4,'l','p'
5.01,'d','p'
4.59,'d','p'
4.62,'l','p'
4.18,'d','p'
3.9,'l','p'
4.37,'l','p'
4.63,'l','p'
3.93,'d','p'
4.58,'l','p'
4.03,'l','p'
3.99,'d','p'
4.57,'l','p'
5.2,'d','p'
4.59,'l','p'
3.54,'l','p'
4.01,'l','p'
4.63,'l','p'
4.45,'d','p'
4.13,'l','p'
4.23,'d','p'
4.83,'l','p'
4.84,'l','p'
4.23,'l','p'
4.1,'l','p'
4.91,'l','p'
3.7,'l','p'
3.65,'d','p'
3.97,'l','p'
3.61,'l','p'
5.25,'d','p'
4.58,'d','p'
4.21,'l','p'
4.73,'d','p'
4.24,'l','p'
5.04,'d','p'
4.45,'d','p'
5.06,'d','p'
4.94,'l','p'
5.49,'d','p'
4.04,'d','p'
4.27,'l','p'
4.71,'d','p'
3.38,'l','p'
4.42,'l','p'
5.83,'d','p'
3.73,'d','p'
5.15,'d','p'
4.03,'l','p'
4.85,'d','p'
3.52,'d','p'
3.73,'d','p'
4.23,'d','p'
4.37,'d','p'
3.46,'l','p'
4.2,'d','p'
5.17,'l','p'
4.59,'d','p'
4.82,'d','p'
4.25,'d','p'
4.54,'d','p'
4.67,'d','p'
4.57,'l','p'
4.6,'d','p'
3.1,'d','p'
4.19,'l','p'
4.57,'l','p'
4.24,'d','p'
4.08,'l','p'
4.4,'l','p'
4.78,'d','p'
4.08,'d','p'
4.16,'d','p'
4.37,'l','p'
5.59,'l','p'
5.65,'d','p'
4.68,'d','p'
4.35,'l','p'
4.07,'d','p'
4.81,'l','p'
3.85,'d','p'
5.01,'l','p'
3.61,'l','p'
4.79,'d','p'
3.08,'l','p'
5.34,'d','p'
4.87,'l','p'
4.31,'d','p'
4.49,'d','p'
4.45,'l','p'
4.89,'l','p'
4.33,'l','p'
5.38,'d','p'
5.11,'d','p'
4.54,'d','p'
4.07,'l','p'
4.5,'d','p'
5.16,'l','p'
5.12,'l','p'
3.71,'d','p'
4.99,'d','p'
3.79,'l','p'
4.25,'l','p'
4.7,'l','p'
4.49,'d','p'
5.1,'d','p'
3.67,'l','p'
3.95,'l','p'
4.42,'d','p'
4.1,'l','p'
4.11,'d','p'
4.48,'d','p'
4.76,'l','p'
4.13,'l','p'
4.3,'d','p'
4.07,'d','p'
4.64,'d','p'
4.04,'l','p'
5.13,'d','p'
5.16,'l','p'
4.82,'l','p'
4.82,'d','p'
4.13,'d','p'
3.58,'l','p'
4.94,'l','p'
5.03,'l','p'
4.82,'d','p'
4.74,'l','p'
5.2,'l','p'
4.37,'l','p'
4.77,'l','p'
4.33,'d','p'
4.55,'l','p'
4.33,'l','p'
4.25,'l','p'
4.38,'d','p'
4.69,'l','p'
4.65,'l','p'
4.26,'l','p'
5.15,'d','p'
5.17,'l','p'
4.44,'d','p'
4.75,'d','p'
4.05,'d','p'
5.12,'d','p'
4.38,'d','p'
3.6,'l','p'
4.33,'d','p'
4.68,'l','p'
4.34,'d','p'
4.86,'l','p'
4.52,'d','p'
4.99,'d','p'
4.09,'l','p'
4.9,'l','p'
4.77,'d','p'
4.74,'l','p'
4.76,'d','p'
4.84,'d','p'
4.83,'d','p'
4.68,'d','p'
5.09,'l','p'
4.99,'d','p'
3.7,'l','p'
3.46,'d','p'
3.24,'l','p'
3.98,'l','p'
3.86,'d','p'
4.14,'l','p'
2.75,'d','p'
3.96,'d','p'
4.18,'l','p'
3.61,'l','p'
3.74,'d','p'
3.69,'l','p'
4.03,'l','p'
4.85,'l','p'
4.03,'l','p'
3.52,'d','p'
3.06,'d','p'
3.43,'d','p'
2.76,'d','p'
3.03,'d','p'
3.33,'l','p'
3.43,'l','p'
3.57,'l','p'
4.11,'d','p'
3.78,'d','p'
3.26,'d','p'
3.58,'d','p'
3.24,'l','p'
2.86,'d','p'
3.66,'l','p'
3.65,'l','p'
3.22,'l','p'
3,'d','p'
3.96,'l','p'
3.01,'d','p'
2.37,'d','p'
3.47,'l','p'
3.73,'l','p'
3.53,'d','p'
2.41,'l','p'
4.58,'l','p'
3.4,'l','p'
3.62,'l','p'
3.26,'d','p'
4.37,'l','p'
3.31,'d','p'
3.83,'d','p'
3.53,'d','p'
3.46,'l','p'
3.32,'d','p'
3.07,'d','p'
3.03,'d','p'
3.36,'l','p'
3.19,'d','p'
3.52,'d','p'
3.51,'d','p'
4.29,'d','p'
4.17,'d','p'
2.5,'l','p'
3.2,'l','p'
3.15,'l','p'
3.29,'d','p'
3.72,'l','p'
3.44,'d','p'
3.56,'d','p'
3.19,'l','p'
3.78,'d','p'
3.63,'l','p'
3.23,'d','p'
3.78,'d','p'
4.27,'l','p'
3.36,'d','p'
3.78,'d','p'
3.96,'l','p'
4.57,'l','p'
3.54,'l','p'
3.42,'l','p'
2.93,'l','p'
3.59,'l','p'
3.34,'d','p'
4.55,'d','p'
4.05,'d','p'
3.87,'d','p'
3.91,'l','p'
3.49,'l','p'
2.91,'l','p'
3.42,'d','p'
3.76,'l','p'
4.23,'l','p'
3.85,'l','p'
3.45,'l','p'
3.92,'l','p'
4.04,'l','p'
2.85,'d','p'
3.63,'l','p'
4.15,'l','p'
3.89,'l','p'
3.25,'l','p'
2.94,'l','p'
3.19,'l','p'
3.52,'d','p'
2.74,'d','p'
4.24,'l','p'
3.25,'d','p'
4.17,'l','p'
4.23,'d','p'
3.78,'l','p'
3.33,'l','p'
2.67,'d','p'
3.66,'d','p'
3.13,'d','p'
3.56,'d','p'
3.25,'d','p'
3.97,'d','p'
3.22,'d','p'
3.67,'d','p'
3.74,'l','p'
2.93,'d','p'
4.31,'d','p'
3.85,'l','p'
4.27,'l','p'
3.6,'l','p'
3.4,'d','p'
3.23,'d','p'
3.57,'d','p'
3.09,'d','p'
3.37,'l','p'
2.93,'l','p'
3.05,'d','p'
3.51,'l','p'
3.7,'d','p'
3.66,'d','p'
3.1,'l','p'
3.97,'d','p'
2.95,'d','p'
3.55,'d','p'
3.22,'d','p'
4.14,'l','p'
4.45,'l','p'
3.64,'d','p'
4.38,'l','p'
3.64,'l','p'
4.04,'d','p'
3.64,'l','p'
3.41,'d','p'
3.78,'l','p'
4.55,'d','p'
3.84,'d','p'
3.26,'l','p'
3.28,'l','p'
3.91,'d','p'
3.38,'l','p'
2.67,'d','p'
4.71,'l','p'
3.16,'l','p'
4,'l','p'
2.98,'d','p'
3.39,'l','p'
3.68,'d','p'
4.92,'d','p'
3.36,'l','p'
2.83,'d','p'
3.37,'l','p'
3.2,'l','p'
3.64,'l','p'
4.16,'d','p'
3.9,'d','p'
4.44,'l','p'
3.52,'l','p'
3.13,'l','p'
2.58,'d','p'
3.12,'l','p'
3.24,'l','p'
3.45,'l','p'
4.07,'l','p'
3.49,'d','p'
3.03,'l','p'
1.77,'d','p'
3.32,'d','p'
3.51,'l','p'
3.84,'d','p'
3.34,'l','p'
3.58,'l','p'
3.6,'l','p'
3.01,'l','p'
3.83,'d','p'
4.11,'l','p'
3.65,'l','p'
2.83,'d','p'
2.58,'d','p'
3.26,'l','p'
4,'l','p'
3.71,'l','p'
3.75,'l','p'
3.07,'l','p'
3.36,'d','p'
3.49,'l','p'
3.47,'d','p'
3.32,'d','p'
3.73,'l','p'
3.4,'d','p'
3.2,'l','p'
2.99,'l','p'
3.39,'d','p'
3.03,'d','p'
3.64,'d','p'
2.68,'l','p'
3.26,'l','p'
2.26,'d','p'
2.92,'d','p'
3.25,'d','p'
2.5,'d','p'
3.79,'l','p'
3.31,'l','p'
3.56,'l','p'
3.51,'l','p'
3.58,'l','p'
2.99,'d','p'
3.83,'d','p'
3.7,'d','p'
3.48,'l','p'
3.15,'l','p'
3.87,'l','p'
3.34,'l','p'
2.42,'l','p'
4.39,'l','p'
4.5,'l','p'
3.4,'l','p'
3.8,'d','p'
3.81,'l','p'
3.14,'d','p'
3.89,'l','p'
3.88,'d','p'
3.4,'d','p'
3.98,'l','p'
3.43,'d','p'
3.05,'l','p'
3.42,'l','p'
3.5,'d','p'
2.93,'d','p'
3.32,'d','p'
3.81,'d','p'
4,'d','p'
2.96,'l','p'
3.23,'d','p'
2.82,'d','p'
3.31,'l','p'
4.07,'l','p'
2.39,'d','p'
3.49,'d','p'
3.28,'d','p'
3.14,'l','p'
3.01,'d','p'
3.48,'d','p'
3.48,'l','p'
3.24,'l','p'
3.09,'l','p'
2.95,'l','p'
4.02,'l','p'
3.72,'d','p'
3.12,'d','p'
3.46,'d','p'
3.29,'l','p'
3.69,'d','p'
3.12,'l','p'
3.85,'l','p'
3.72,'d','p'
3.74,'d','p'
2.45,'l','p'
2.47,'d','p'
3.1,'d','p'
3.66,'l','p'
2.53,'l','p'
3.28,'l','p'
3.66,'l','p'
3.27,'l','p'
3.62,'l','p'
3.18,'l','p'
3.67,'d','p'
2.58,'l','p'
2.82,'d','p'
3.51,'l','p'
4.07,'d','p'
4.21,'d','p'
4.1,'d','p'
3.79,'d','p'
3.85,'l','p'
4.35,'d','p'
3.8,'d','p'
3.87,'l','p'
3.43,'d','p'
3.41,'d','p'
3.47,'d','p'
3.85,'d','p'
3.14,'d','p'
3.5,'d','p'
3.17,'l','p'
3.63,'d','p'
4.56,'l','p'
3.2,'l','p'
2.68,'l','p'
3.81,'l','p'
3.31,'d','p'
4.33,'l','p'
3.58,'d','p'
3.93,'l','p'
3.11,'l','p'
3.59,'d','p'
3.82,'l','p'
4.04,'l','p'
4.04,'l','p'
4.14,'l','p'
3.14,'d','p'
3.63,'l','p'
3.39,'d','p'
3.01,'d','p'
3.55,'d','p'
2.46,'l','p'
3.41,'d','p'
3.4,'l','p'
3.69,'d','p'
4.03,'l','p'
3.88,'l','p'
2.88,'l','p'
3.77,'d','p'
3.57,'d','p'
4.47,'l','p'
3.46,'d','p'
3.11,'l','p'
4.05,'d','p'
4.08,'d','p'
4.11,'d','p'
2.97,'l','p'
3.21,'d','p'
2.93,'l','p'
3.38,'l','p'
3.44,'l','p'
3.53,'d','p'
3.12,'l','p'
3.32,'d','p'
2.87,'d','p'
4.15,'l','p'
2.74,'l','p'
2.35,'d','p'
3.42,'l','p'
3.46,'l','p'
2.87,'d','p'
4.93,'l','p'
3.61,'l','p'
3.66,'d','p'
3.53,'d','p'
4.05,'l','p'
3.43,'l','p'
3.19,'l','p'
3.69,'l','p'
4.38,'d','p'
3.55,'d','p'
4.28,'d','p'
3.99,'d','p'
4.04,'d','p'
3.45,'d','p'
3.96,'l','p'
4.04,'d','p'
3.23,'d','p'
2.94,'d','p'
3.91,'d','p'
2.54,'l','p'
4.23,'d','p'
3.25,'d','p'
2.95,'l','p'
4.31,'l','p'
3.48,'d','p'
3.57,'d','p'
3.7,'l','p'
3.36,'l','p'
4.05,'l','p'
3.36,'d','p'
3.42,'d','p'
3.11,'l','p'
3.36,'l','p'
4.27,'l','p'
3.3,'d','p'
2.78,'d','p'
4.41,'d','p'
3.96,'d','p'
3.11,'d','p'
2.98,'l','p'
3.8,'l','p'
4.03,'l','p'
3.14,'l','p'
3.66,'l','p'
3.58,'d','p'
3.18,'l','p'
3.26,'d','p'
3.43,'l','p'
4.08,'d','p'
3.75,'l','p'
2.47,'d','p'
3.45,'l','p'
3.5,'d','p'
3.12,'l','p'
3.11,'l','p'
4.71,'d','p'
2.77,'d','p'
4.33,'d','p'
3.96,'l','p'
2.8,'d','p'
3.04,'d','p'
3.95,'d','p'
3.8,'d','p'
3.27,'l','p'
4.25,'l','p'
2.29,'l','p'
3.18,'d','p'
3.56,'d','p'
3.74,'l','p'
2.65,'l','p'
2.94,'l','p'
3.24,'d','p'
3.91,'l','p'
2.72,'d','p'
3.61,'l','p'
3.34,'d','p'
3.35,'d','p'
3.68,'l','p'
3.32,'l','p'
4.17,'l','p'
4.42,'d','p'
3.69,'l','p'
3.23,'d','p'
4.35,'d','p'
4.27,'d','p'
3.79,'d','p'
2.74,'l','p'
3.25,'l','p'
4.02,'d','p'
3.42,'l','p'
3.19,'d','p'
3.62,'l','p'
3.68,'d','p'
4.61,'l','p'
3.34,'d','p'
3.85,'l','p'
3.59,'l','p'
3.13,'l','p'
4.53,'l','p'
3.65,'l','p'
3.73,'l','p'
3.48,'l','p'
4.57,'l','p'
3.39,'d','p'
4.41,'l','p'
3.23,'d','p'
3.66,'l','p'
2.93,'d','p'
4.18,'d','p'
2.98,'l','p'
3.16,'d','p'
3.92,'l','p'
3.74,'d','p'
2.66,'d','p'
3.09,'d','p'
3.23,'l','p'
4.23,'l','p'
3.77,'d','p'
3.18,'d','p'
3.45,'d','p'
3.37,'l','p'
4.11,'d','p'
3.5,'l','p'
3.64,'d','p'
3.63,'l','p'
4.43,'l','p'
3.78,'d','p'
4.14,'d','p'
3.53,'l','p'
3.58,'d','p'
3.84,'l','p'
4.03,'l','p'
4.02,'d','p'
3.18,'l','p'
3.33,'d','p'
3.47,'d','p'
3.14,'l','p'
3.28,'d','p'
3,'d','p'
2.16,'l','p'
3.2,'l','p'
3.32,'l','p'
2.95,'d','p'
2.83,'l','p'
3.5,'l','p'
3.41,'l','p'
3.18,'d','p'
3.61,'l','p'
3.43,'d','p'
3.51,'l','p'
2.44,'l','p'
3.2,'l','p'
2.65,'d','p'
4.35,'l','p'
3.73,'l','p'
2.88,'d','p'
3.02,'l','p'
3.14,'d','p'
4.18,'l','p'
4.64,'d','p'
3.77,'l','p'
3.5,'d','p'
3.26,'l','p'
3.92,'d','p'
2.41,'d','p'
3.11,'d','p'
3.12,'l','p'
4.03,'l','p'
3.43,'l','p'
3.47,'l','p'
4,'d','p'
4.63,'d','p'
3.14,'d','p'
4.34,'l','p'
3.5,'d','p'
4.1,'d','p'
2.45,'l','p'
3.37,'d','p'
3.56,'d','p'
3.82,'l','p'
3.61,'d','p'
3.53,'l','p'
3.49,'d','p'
4.16,'l','p'
2.67,'d','p'
4.02,'l','p'
3.73,'l','p'
3.67,'d','p'
3.05,'d','p'
2.51,'l','p'
3.84,'d','p'
3.68,'d','p'
3.78,'d','p'
2.95,'d','p'
2.94,'l','p'
2.85,'l','p'
3.18,'d','p'
3.77,'d','p'
3.48,'d','p'
3.58,'d','p'
3.63,'l','p'
3.31,'l','p'
2.9,'d','p'
3.56,'l','p'
3.72,'l','p'
3.34,'l','p'
3.85,'d','p'
3.32,'d','p'
4.29,'d','p'
3.84,'d','p'
3.28,'d','p'
3.54,'d','p'
3.56,'l','p'
3.91,'l','p'
3.64,'l','p'
3.37,'d','p'
4.59,'d','p'
3.98,'d','p'
2.81,'d','p'
3.09,'d','p'
3.59,'d','p'
2.91,'l','p'
3.34,'d','p'
3.23,'d','p'
3.65,'l','p'
2.85,'l','p'
4.22,'l','p'
3.41,'l','p'
4.14,'l','p'
3.15,'d','p'
3.5,'d','p'
4.09,'l','p'
3.36,'d','p'
2.51,'l','p'
3.21,'d','p'
3.62,'l','p'
3.24,'l','p'
3.29,'d','p'
3.19,'l','p'
3.39,'l','p'
3.94,'d','p'
3.77,'l','p'
3.68,'l','p'
3.47,'d','p'
3.14,'d','p'
3.29,'l','p'
2.84,'l','p'
3.57,'l','p'
3.34,'l','p'
3.77,'l','p'
4.25,'l','p'
4.02,'d','p'
3.9,'l','p'
3.48,'d','p'
3.38,'d','p'
3.41,'d','p'
3.69,'l','p'
3.54,'d','p'
3.66,'d','p'
4.4,'d','p'
3.04,'d','p'
3.7,'l','p'
3.77,'l','p'
3.47,'d','p'
4.07,'d','p'
3.82,'d','p'
2.73,'l','p'
3.12,'l','p'
4.21,'l','p'
2.46,'l','p'
3.9,'l','p'
3.04,'d','p'
3.29,'l','p'
3.82,'d','p'
3.78,'l','p'
3.76,'d','p'
3.01,'l','p'
2.7,'d','p'
3.89,'d','p'
3.13,'d','p'
2.94,'l','p'
2.35,'d','p'
3.27,'l','p'
3.45,'l','p'
2.91,'l','p'
2.83,'l','p'
3.55,'d','p'
4.43,'l','p'
3.35,'d','p'
4.4,'d','p'
2.99,'l','p'
3.11,'d','p'
3.39,'d','p'
4.05,'d','p'
2.4,'l','p'
2.64,'l','p'
4.16,'d','p'
3.49,'l','p'
2.56,'l','p'
3.15,'l','p'
4.31,'d','p'
2.6,'l','p'
4.12,'l','p'
3.58,'d','p'
3.02,'l','p'
3.64,'l','p'
3.47,'d','p'
2.35,'l','p'
2.32,'d','p'
3.23,'l','p'
4.23,'l','p'
2.82,'l','p'
2.4,'l','p'
4.16,'l','p'
3.93,'d','p'
3.69,'d','p'
3.08,'l','p'
3.41,'d','p'
4.28,'d','p'
4.86,'l','p'
3.59,'d','p'
2.75,'d','p'
2.64,'d','p'
3.12,'d','p'
3.63,'d','p'
3.96,'d','p'
4.12,'d','p'
2.97,'d','p'
3.15,'d','p'
3.94,'d','p'
4.48,'d','p'
3.45,'d','p'
3.36,'l','p'
4.18,'l','p'
2.9,'l','p'
3.02,'d','p'
3.39,'d','p'
3.42,'d','p'
3.86,'d','p'
2.95,'l','p'
3.55,'l','p'
3.29,'l','p'
4.49,'d','p'
3.4,'d','p'
3.31,'l','p'
3.49,'l','p'
3.35,'l','p'
4.23,'l','p'
3.41,'d','p'
3.47,'d','p'
3.36,'l','p'
3.01,'d','p'
3.86,'l','p'
4.59,'l','p'
3.14,'l','p'
4.37,'l','p'
3.04,'d','p'
4.72,'l','p'
3.47,'d','p'
6.06,'l','e'
5.33,'l','e'
6.88,'l','e'
6.11,'l','e'
6.77,'l','e'
5.89,'l','e'
5.82,'l','e'
5.16,'l','e'
6.34,'l','e'
6.19,'l','e'
5.74,'l','e'
6.27,'l','e'
6.49,'l','e'
6.63,'l','e'
5.69,'l','e'
4.78,'l','e'
5.61,'l','e'
4.91,'l','e'
5.2,'l','e'
7,'l','e'
6.05,'l','e'
5.89,'l','e'
5.73,'l','e'
5.14,'l','e'
6.54,'l','e'
4.9,'l','e'
6.02,'l','e'
6.33,'l','e'
6.15,'l','e'
4.79,'l','e'
5.53,'l','e'
4.43,'l','e'
5.36,'l','e'
5.5,'l','e'
6.39,'l','e'
6.86,'l','e'
6.79,'l','e'
5.03,'l','e'
7.09,'l','e'
6.04,'l','e'
5.86,'l','e'
5.23,'l','e'
5.37,'l','e'
5.24,'l','e'
6.58,'l','e'
5.57,'l','e'
6.24,'l','e'
6.41,'l','e'
5.78,'l','e'
7.48,'l','e'
4.81,'l','e'
7.08,'l','e'
5.96,'l','e'
6.29,'l','e'
4.27,'l','e'
6.54,'l','e'
5.25,'l','e'
5.96,'l','e'
8.38,'l','e'
4.51,'l','e'
4.05,'l','e'
6.76,'l','e'
6.11,'l','e'
5.67,'l','e'
6.27,'l','e'
6.42,'l','e'
5.05,'l','e'
6.41,'l','e'
4.34,'l','e'
6.58,'l','e'
7.17,'l','e'
6.05,'l','e'
5.07,'l','e'
6.19,'l','e'
6.88,'l','e'
7.07,'l','e'
6.04,'l','e'
5.11,'l','e'
6.61,'l','e'
5.17,'l','e'
5.53,'l','e'
7.07,'l','e'
6.19,'l','e'
6.14,'l','e'
5.33,'l','e'
6.12,'l','e'
4.56,'l','e'
5.07,'l','e'
5.64,'l','e'
5.76,'l','e'
5.71,'l','e'
4.55,'l','e'
5.85,'l','e'
4.21,'l','e'
4.64,'l','e'
6.17,'l','e'
6.29,'l','e'
6.96,'l','e'
6.12,'l','e'
5.1,'l','e'
6.84,'l','e'
5.85,'l','e'
6.29,'l','e'
6.41,'l','e'
5.17,'l','e'
7.46,'l','e'
6.29,'l','e'
5.11,'l','e'
5.11,'l','e'
5.56,'l','e'
5.87,'l','e'
6.49,'l','e'
6.34,'l','e'
6.55,'l','e'
5.31,'l','e'
4.76,'l','e'
5.9,'l','e'
4.53,'l','e'
5.96,'l','e'
6.08,'l','e'
5.51,'l','e'
5.5,'l','e'
7.11,'l','e'
6.89,'l','e'
6.69,'l','e'
5.73,'l','e'
5.99,'l','e'
5.71,'l','e'
4.31,'l','e'
6.5,'l','e'
6.02,'l','e'
7.36,'l','e'
4.89,'l','e'
7.14,'l','e'
6.63,'l','e'
6.9,'l','e'
5.6,'l','e'
6.24,'l','e'
6.55,'l','e'
6.59,'l','e'
6.09,'l','e'
6.28,'l','e'
6.64,'l','e'
6.71,'l','e'
6.02,'l','e'
4.42,'l','e'
6.44,'l','e'
5.92,'l','e'
6.14,'l','e'
7.25,'l','e'
6.2,'l','e'
6.99,'l','e'
5.01,'l','e'
6.06,'l','e'
5.58,'l','e'
6.7,'l','e'
6.11,'l','e'
5.02,'l','e'
5.87,'l','e'
5.56,'l','e'
5.81,'l','e'
5.24,'l','e'
6.06,'l','e'
5.93,'l','e'
4.7,'l','e'
6.74,'l','e'
6.65,'l','e'
6.07,'l','e'
6.05,'l','e'
6.79,'l','e'
6.73,'l','e'
6.57,'l','e'
6.92,'l','e'
5.39,'l','e'
5.46,'l','e'
6.18,'l','e'
4.26,'l','e'
6.46,'l','e'
6.26,'l','e'
6.28,'l','e'
6.44,'l','e'
5.3,'l','e'
7.03,'l','e'
6.32,'l','e'
5.76,'l','e'
5.9,'l','e'
5.79,'l','e'
5.22,'l','e'
7.43,'l','e'
6.07,'l','e'
5.26,'l','e'
6.7,'l','e'
6.66,'l','e'
5.16,'l','e'
7.33,'l','e'
6.78,'l','e'
5.88,'l','e'
6.05,'l','e'
6.89,'l','e'
3.91,'l','e'
5.67,'l','e'
6.35,'l','e'
6.74,'l','e'
6.78,'l','e'
5.94,'l','e'
6.23,'l','e'
5.29,'l','e'
5.64,'l','e'
6.13,'l','e'
5.51,'l','e'
6.24,'l','e'
5.17,'l','e'
5.81,'l','e'
5.34,'l','e'
6,'l','e'
6.22,'l','e'
6.24,'l','e'
6.08,'l','e'
6.25,'l','e'
6.52,'l','e'
5.82,'l','e'
7.39,'l','e'
5.94,'l','e'
5.48,'l','e'
6.02,'l','e'
6.64,'l','e'
6.78,'l','e'
6.12,'l','e'
6.75,'l','e'
6.65,'l','e'
5.61,'l','e'
6.26,'l','e'
5.8,'l','e'
6.17,'l','e'
5.82,'l','e'
6.45,'l','e'
5.5,'l','e'
6.29,'l','e'
5.84,'l','e'
5.82,'l','e'
6.26,'l','e'
6.05,'l','e'
5.67,'l','e'
6.84,'l','e'
4.49,'l','e'
6.34,'l','e'
6.31,'l','e'
7.12,'l','e'
5.84,'l','e'
6.34,'l','e'
5.95,'l','e'
5.87,'l','e'
6.02,'l','e'
5.66,'l','e'
5.94,'l','e'
6.34,'l','e'
6.15,'l','e'
6.51,'l','e'
6.29,'l','e'
6.33,'l','e'
5.33,'l','e'
6.49,'l','e'
5.59,'l','e'
5.77,'l','e'
5.48,'l','e'
4.62,'l','e'
5.66,'l','e'
5.55,'l','e'
5.35,'l','e'
6.44,'l','e'
5.44,'l','e'
5.84,'l','e'
5.32,'l','e'
6.77,'l','e'
5.01,'l','e'
6.02,'l','e'
5.31,'l','e'
5.15,'l','e'
5.86,'l','e'
6.04,'l','e'
6.9,'l','e'
5.58,'l','e'
5.85,'l','e'
5.4,'l','e'
5.85,'l','e'
5.52,'l','e'
6.52,'l','e'
6.06,'l','e'
5.93,'l','e'
5.27,'l','e'
5.44,'l','e'
6.81,'l','e'
6.67,'l','e'
5.98,'l','e'
5.74,'l','e'
6.76,'l','e'
6.18,'l','e'
5.81,'l','e'
6.53,'l','e'
6.75,'l','e'
5.01,'l','e'
5.86,'l','e'
5.52,'l','e'
4.29,'l','e'
6.94,'l','e'
5.57,'l','e'
5.81,'l','e'
6.24,'l','e'
4.94,'l','e'
6.39,'l','e'
6.63,'l','e'
4.97,'l','e'
6.21,'l','e'
5.77,'l','e'
5.55,'l','e'
5,'l','e'
6.09,'l','e'
6.08,'l','e'
6.44,'l','e'
5.44,'l','e'
6.8,'l','e'
6.79,'l','e'
6.43,'l','e'
5.74,'l','e'
5.6,'l','e'
6.51,'l','e'
6.33,'l','e'
7.12,'l','e'
7.47,'l','e'
5.13,'l','e'
5.8,'l','e'
5.03,'l','e'
6,'l','e'
5.78,'l','e'
5.67,'l','e'
5.38,'l','e'
5.7,'l','e'
5.85,'l','e'
5.29,'l','e'
6.31,'l','e'
5.98,'l','e'
5.86,'l','e'
6.14,'l','e'
5.68,'l','e'
6.03,'l','e'
6.01,'l','e'
4.81,'l','e'
5.1,'l','e'
5.98,'l','e'
5.66,'l','e'
5.32,'l','e'
5.29,'l','e'
7.24,'l','e'
7.86,'h','p'
9.97,'d','p'
9.53,'d','p'
7.44,'h','p'
10.09,'h','p'
9.45,'h','p'
9.71,'h','p'
9.5,'h','p'
8.17,'h','p'
7.61,'h','p'
8.26,'d','p'
10.98,'h','p'
10.12,'h','p'
8.49,'d','p'
10.9,'h','p'
9.46,'h','p'
9.46,'h','p'
9.66,'d','p'
10.6,'d','p'
7.24,'h','p'
9.92,'h','p'
9.04,'d','p'
9.42,'d','p'
8.14,'d','p'
8.27,'h','p'
9.65,'d','p'
9.49,'h','p'
9.71,'h','p'
8.86,'d','p'
11.3,'d','p'
7.3,'h','p'
9.6,'d','p'
6.83,'d','p'
10.2,'d','p'
10.83,'d','p'
9.03,'d','p'
9.51,'d','p'
9.47,'h','p'
8.6,'d','p'
7.85,'d','p'
8.9,'d','p'
8.18,'h','p'
8.33,'h','p'
7.35,'h','p'
8.03,'d','p'
8.19,'d','p'
10.48,'h','p'
8.84,'d','p'
9.03,'h','p'
9.34,'d','p'
8.98,'d','p'
8.26,'h','p'
8.74,'d','p'
9.09,'h','p'
8.83,'h','p'
9.24,'d','p'
9.33,'h','p'
7.94,'d','p'
9.88,'h','p'
9.04,'h','p'
8.92,'h','p'
8.62,'h','p'
9.24,'h','p'
8.81,'d','p'
8.01,'h','p'
8.82,'d','p'
9.87,'d','p'
7.86,'h','p'
10.29,'h','p'
10.97,'d','p'
9.26,'h','p'
7.07,'d','p'
7.71,'h','p'
7.94,'h','p'
8.95,'d','p'
8.84,'h','p'
7.8,'d','p'
8.7,'h','p'
6.3,'d','p'
11.06,'d','p'
9.26,'d','p'
7.85,'h','p'
8.09,'h','p'
9.44,'h','p'
8.27,'d','p'
8.37,'h','p'
9.62,'d','p'
8.81,'d','p'
8.5,'h','p'
8.28,'d','p'
9.52,'d','p'
8.88,'d','p'
9.18,'h','p'
10.36,'d','p'
7.89,'d','p'
9.86,'h','p'
9.14,'h','p'
8.1,'h','p'
9.12,'d','p'
8.95,'d','p'
9.39,'h','p'
9.81,'d','p'
9.2,'d','p'
7.55,'h','p'
10.75,'d','p'
9.8,'d','p'
8.13,'d','p'
9.19,'d','p'
10.17,'d','p'
8.51,'d','p'
9.15,'d','p'
9.2,'d','p'
9.37,'d','p'
10.48,'h','p'
8.87,'h','p'
8.11,'h','p'
9.18,'h','p'
9.18,'d','p'
7.79,'d','p'
7.58,'h','p'
10.19,'d','p'
10.58,'h','p'
10.03,'h','p'
9.02,'d','p'
11.29,'d','p'
8.64,'h','p'
9.37,'d','p'
9.22,'h','p'
9.5,'h','p'
9.76,'h','p'
9.61,'d','p'
8.72,'d','p'
9.46,'d','p'
9.8,'h','p'
7.14,'d','p'
8.65,'d','p'
9.32,'h','p'
6.85,'d','p'
8.42,'d','p'
8.66,'h','p'
7.18,'h','p'
9.4,'d','p'
7.8,'d','p'
9.44,'h','p'
10,'d','p'
8.26,'h','p'
10.48,'h','p'
9.47,'d','p'
8.23,'d','p'
9.5,'h','p'
10.32,'h','p'
10.58,'d','p'
9.19,'h','p'
9.61,'h','p'
7.32,'d','p'
8.29,'h','p'
10.19,'h','p'
8.36,'h','p'
7.64,'d','p'
9.28,'d','p'
9.28,'h','p'
8.25,'h','p'
8.08,'d','p'
6.55,'h','p'
9.35,'d','p'
8.35,'h','p'
8.86,'d','p'
9.12,'d','p'
9.52,'h','p'
8.96,'h','p'
9.27,'h','p'
9.06,'h','p'
9.6,'h','p'
9.63,'h','p'
7.53,'h','p'
10.41,'h','p'
9.52,'h','p'
10.96,'d','p'
7.78,'d','p'
7.56,'d','p'
10.46,'h','p'
10.03,'d','p'
9.25,'d','p'
8.61,'d','p'
8.75,'d','p'
9.35,'d','p'
8.65,'h','p'
7.67,'h','p'
9.46,'d','p'
9.79,'d','p'
10.23,'h','p'
7.01,'d','p'
7.82,'h','p'
10.12,'h','p'
10.75,'d','p'
9.63,'h','p'
9.01,'h','p'
9.52,'h','p'
8.64,'h','p'
9.39,'d','p'
6.93,'h','p'
9.05,'d','p'
9.31,'d','p'
10.94,'d','p'
8.97,'d','p'
7.96,'h','p'
8.79,'h','p'
10.78,'h','p'
10.7,'h','p'
9.87,'h','p'
9.27,'h','p'
9.62,'d','p'
10.17,'h','p'
8.4,'h','p'
10.98,'h','p'
7.44,'d','p'
10.06,'d','p'
9.35,'h','p'
9.21,'h','p'
9.43,'d','p'
9.54,'h','p'
8.45,'d','p'
10.31,'h','p'
9.82,'h','p'
10.39,'h','p'
7.85,'h','p'
10.88,'d','p'
9.93,'h','p'
7.24,'h','p'
10.42,'h','p'
7.83,'d','p'
7.88,'d','p'
11.29,'h','p'
10.55,'d','p'
11.16,'d','p'
9.28,'h','p'
9.87,'h','p'
8.99,'d','p'
8.91,'h','p'
7.08,'d','p'
7.65,'h','p'
7.31,'d','p'
9.28,'h','p'
8.29,'h','p'
8.57,'h','p'
9.6,'d','p'
7.7,'d','p'
7.63,'h','p'
8.68,'d','p'
9.75,'d','p'
8.26,'h','p'
9.84,'d','p'
8.73,'d','p'
8.76,'h','p'
8.49,'d','p'
9.01,'h','p'
9.33,'h','p'
10.59,'h','p'
8.81,'d','p'
10.58,'d','p'
7.76,'d','p'
8.09,'d','p'
10.78,'d','p'
8.83,'h','p'
9.4,'h','p'
7.03,'d','p'
9.11,'d','p'
8.28,'d','p'
9.6,'d','p'
9.69,'h','p'
10.84,'d','p'
10.05,'d','p'
7.92,'h','p'
8.01,'d','p'
8.7,'h','p'
10.52,'d','p'
9.15,'h','p'
8.74,'d','p'
9.96,'d','p'
9.32,'h','p'
9.1,'h','p'
7.15,'h','p'
7.92,'h','p'
9.99,'d','p'
7.86,'d','p'
8.03,'h','p'
7.64,'d','p'
9.43,'h','p'
8.27,'h','p'
10.12,'d','p'
8.62,'d','p'
8.88,'d','p'
9.43,'d','p'
8.3,'h','p'
10.54,'d','p'
8.36,'h','p'
6.22,'d','p'
10.69,'h','p'
8.55,'d','p'
8.23,'d','p'
10.78,'h','p'
9.65,'h','p'
8.21,'d','p'
8.41,'d','p'
8.16,'h','p'
8.77,'d','p'
7.64,'d','p'
9.52,'h','p'
7.8,'h','p'
10.58,'h','p'
9.15,'h','p'
11.53,'d','p'
8.69,'d','p'
9.41,'d','p'
7.53,'d','p'
9.37,'d','p'
8.63,'h','p'
8.25,'h','p'
7.26,'d','p'
9.34,'d','p'
10.4,'h','p'
8.15,'d','p'
7.93,'h','p'
10.05,'h','p'
8.95,'h','p'
7.15,'h','p'
7.59,'h','p'
8.01,'d','p'
9.08,'h','p'
9.97,'h','p'
9.78,'d','p'
8.94,'d','p'
10.26,'h','p'
9.17,'d','p'
8.35,'d','p'
9.23,'d','p'
7.99,'d','p'
9.52,'h','p'
8.3,'h','p'
8.11,'h','p'
7.19,'d','p'
9.36,'h','p'
6.73,'h','p'
8.75,'h','p'
9.99,'d','p'
9,'d','p'
9.26,'h','p'
9.09,'h','p'
8.44,'h','p'
10.5,'d','p'
6.84,'d','p'
9.94,'d','p'
7.58,'h','p'
2.75,'g','e'
3.61,'g','e'
3.17,'g','e'
3.48,'g','e'
3.97,'g','e'
3.54,'g','e'
3.12,'g','e'
4.18,'g','e'
3.71,'g','e'
2.96,'g','e'
4.12,'g','e'
3.67,'g','e'
3.54,'g','e'
3.49,'g','e'
2.59,'g','e'
3.66,'g','e'
2.91,'g','e'
3.4,'g','e'
3.14,'g','e'
4.29,'g','e'
3.07,'g','e'
3.59,'g','e'
3.24,'g','e'
3.64,'g','e'
3.02,'g','e'
2.8,'g','e'
4.06,'g','e'
3.58,'g','e'
4.67,'g','e'
3.27,'g','e'
3.07,'g','e'
3.41,'g','e'
3.55,'g','e'
4.21,'g','e'
3.1,'g','e'
3.26,'g','e'
3.7,'g','e'
2.99,'g','e'
3.46,'g','e'
3.84,'g','e'
4.13,'g','e'
3.95,'g','e'
3.68,'g','e'
3.91,'g','e'
3.56,'g','e'
3.41,'g','e'
3.88,'g','e'
4.21,'g','e'
4.63,'g','e'
3.96,'g','e'
3.4,'g','e'
4.23,'g','e'
3.91,'g','e'
3.26,'g','e'
4.04,'g','e'
2.87,'g','e'
3.48,'g','e'
3.09,'g','e'
3.07,'g','e'
3.03,'g','e'
3.68,'g','e'
2.32,'g','e'
3.32,'g','e'
4,'g','e'
3.24,'g','e'
3.72,'g','e'
3.56,'g','e'
3.28,'g','e'
3.38,'g','e'
4.52,'g','e'
4.26,'g','e'
3.92,'g','e'
4.58,'g','e'
4.02,'g','e'
3.68,'g','e'
3.22,'g','e'
4.46,'g','e'
3.35,'g','e'
2.98,'g','e'
3.66,'g','e'
3.72,'g','e'
3.08,'g','e'
3.19,'g','e'
5.11,'g','e'
3.99,'g','e'
3.63,'g','e'
3.87,'g','e'
3.71,'g','e'
3.64,'g','e'
2.52,'g','e'
4.99,'g','e'
3.27,'g','e'
2.88,'g','e'
4.34,'g','e'
3.87,'g','e'
3.28,'g','e'
3.36,'g','e'
3.21,'g','e'
2.43,'g','e'
4.14,'g','e'
3,'g','e'
3.15,'g','e'
3.91,'g','e'
3.65,'g','e'
3.59,'g','e'
4.27,'g','e'
2.77,'g','e'
3.16,'g','e'
3.96,'g','e'
3.07,'g','e'
3.42,'g','e'
3.32,'g','e'
3.59,'g','e'
4.1,'g','e'
3.87,'g','e'
4.03,'g','e'
3.61,'g','e'
3.97,'g','e'
4.02,'g','e'
3.97,'g','e'
3.41,'g','e'
3.78,'g','e'
2.9,'g','e'
3.6,'g','e'
3.51,'g','e'
3.59,'g','e'
2.29,'g','e'
2.87,'g','e'
3.67,'g','e'
4.24,'g','e'
4.16,'g','e'
3.37,'g','e'
3.34,'g','e'
4,'g','e'
3.12,'g','e'
3.69,'g','e'
3.53,'g','e'
3.16,'g','e'
3.07,'g','e'
3.51,'g','e'
3.18,'g','e'
3.44,'g','e'
3.82,'g','e'
3.81,'g','e'
4.14,'g','e'
3.37,'g','e'
3.58,'g','e'
3.73,'g','e'
3.37,'g','e'
3.32,'g','e'
3.6,'g','e'
3.71,'g','e'
3.58,'g','e'
3.66,'g','e'
4.03,'g','e'
4.52,'g','e'
3.79,'g','e'
2.83,'g','e'
3.4,'g','e'
3.53,'g','e'
3.54,'g','e'
4.05,'g','e'
2.97,'g','e'
3.48,'g','e'
3.58,'g','e'
3.15,'g','e'
3.65,'g','e'
3.44,'g','e'
3.46,'g','e'
3.97,'g','e'
3.12,'g','e'
4.06,'g','e'
2.93,'g','e'
3.25,'g','e'
4.17,'g','e'
3.58,'g','e'
2.83,'g','e'
3.63,'g','e'
3.41,'g','e'
3.34,'g','e'
3.5,'g','e'
3.26,'g','e'
3.75,'g','e'
3.31,'g','e'
3.12,'g','e'
2.92,'g','e'
3.71,'g','e'
2.68,'g','e'
3.32,'g','e'
4.25,'g','e'
2.7,'g','e'
3.77,'g','e'
3.57,'g','e'
3.77,'g','e'
3.49,'g','e'
2.15,'g','e'
3.24,'g','e'
3.8,'g','e'
2.24,'g','e'
4.02,'g','e'
3.27,'g','e'
3.13,'g','e'
4.74,'g','e'
3.02,'g','e'
3.49,'g','e'
3.81,'g','e'
2.83,'g','e'
4.17,'g','e'
2.8,'g','e'
3.85,'g','e'
2.51,'g','e'
3.59,'g','e'
3.33,'g','e'
3.51,'g','e'
3.59,'g','e'
2.94,'g','e'
3.49,'g','e'
3.36,'g','e'
3.79,'g','e'
3.68,'g','e'
3.13,'g','e'
4.02,'g','e'
3.13,'g','e'
2.93,'g','e'
4.01,'g','e'
3.63,'g','e'
3.08,'g','e'
2.92,'g','e'
3.56,'g','e'
3.65,'g','e'
3.8,'g','e'
3.03,'g','e'
2.56,'g','e'
4.08,'g','e'
3.14,'g','e'
3.82,'g','e'
4.02,'g','e'
3.64,'g','e'
3.56,'g','e'
3.84,'g','e'
4.22,'g','e'
2.99,'g','e'
3.68,'g','e'
3.72,'g','e'
3.33,'g','e'
3.98,'g','e'
2.95,'g','e'
3.12,'g','e'
2.84,'g','e'
3.78,'g','e'
4.05,'g','e'
3.46,'g','e'
3.6,'g','e'
3.49,'g','e'
3.98,'g','e'
3.78,'g','e'
4.54,'g','e'
3.62,'g','e'
2.87,'g','e'
3.93,'g','e'
3.66,'g','e'
3.58,'g','e'
3.86,'g','e'
2.78,'g','e'
4.43,'g','e'
3.79,'g','e'
3.4,'g','e'
2.5,'g','e'
4.27,'g','e'
3.53,'g','e'
3.66,'g','e'
4.11,'g','e'
3.84,'g','e'
3.28,'g','e'
3.7,'g','e'
3.18,'g','e'
3.3,'g','e'
4.05,'g','e'
2.54,'g','e'
3.57,'g','e'
3.54,'g','e'
3.42,'g','e'
3.18,'g','e'
3.45,'g','e'
4.15,'g','e'
3.68,'g','e'
3.54,'g','e'
2.72,'g','e'
2.64,'g','e'
2.93,'g','e'
3.77,'g','e'
2.74,'g','e'
4,'g','e'
3.74,'g','e'
3.37,'g','e'
3.06,'g','e'
2.95,'g','e'
3.13,'g','e'
3.55,'g','e'
3.92,'g','e'
4.23,'g','e'
4.06,'g','e'
2.88,'g','e'
3.46,'g','e'
3.14,'g','e'
4.11,'g','e'
3.32,'g','e'
3.76,'g','e'
4.18,'g','e'
3.04,'g','e'
3.84,'g','e'
2.95,'g','e'
4.25,'g','e'
3.66,'g','e'
3.24,'g','e'
3,'g','e'
3.9,'g','e'
4.31,'g','e'
3.32,'g','e'
4.33,'g','e'
2.91,'g','e'
3.86,'g','e'
3.57,'g','e'
3.29,'g','e'
3.07,'g','e'
3.22,'g','e'
3.24,'g','e'
3.54,'g','e'
2.69,'g','e'
3.29,'g','e'
3.97,'g','e'
2.31,'g','e'
3.22,'g','e'
3.44,'g','e'
3.28,'g','e'
4.12,'g','e'
3.17,'g','e'
3.26,'g','e'
3.62,'g','e'
3.24,'g','e'
3.15,'g','e'
3.58,'g','e'
4.19,'g','e'
3.34,'g','e'
2.76,'g','e'
3.25,'g','e'
3.27,'g','e'
3.34,'g','e'
3.3,'g','e'
4.2,'g','e'
3.98,'g','e'
3.63,'g','e'
3.14,'g','e'
1.34,'d','p'
1.12,'d','p'
0.94,'l','p'
1,'l','p'
1.17,'d','p'
0.96,'d','p'
0.97,'l','p'
1.18,'d','p'
0.97,'l','p'
0.82,'l','p'
0.92,'d','p'
1.1,'l','p'
0.96,'l','p'
0.77,'l','p'
1.07,'d','p'
0.96,'l','p'
1.13,'l','p'
1.07,'d','p'
1.03,'d','p'
1.01,'l','p'
0.94,'d','p'
0.96,'d','p'
1.01,'l','p'
1.06,'d','p'
1.05,'d','p'
1.19,'l','p'
0.9,'l','p'
1.04,'d','p'
1.06,'l','p'
1.04,'d','p'
0.98,'l','p'
1.09,'l','p'
1.07,'d','p'
0.89,'d','p'
1,'l','p'
1,'l','p'
1.01,'l','p'
0.9,'l','p'
0.95,'d','p'
1.05,'l','p'
1.14,'l','p'
1.04,'d','p'
0.93,'l','p'
1.02,'l','p'
1.09,'d','p'
0.98,'d','p'
0.99,'l','p'
1.12,'l','p'
1.14,'l','p'
0.92,'l','p'
1.08,'d','p'
1.05,'l','p'
1.03,'d','p'
0.9,'d','p'
0.94,'d','p'
1.18,'d','p'
1.2,'l','p'
0.86,'d','p'
1.08,'d','p'
0.94,'d','p'
0.85,'d','p'
1.07,'d','p'
1,'d','p'
0.96,'d','p'
1.02,'l','p'
1.06,'d','p'
1.12,'l','p'
0.91,'d','p'
1.06,'l','p'
1.02,'d','p'
0.99,'l','p'
0.75,'l','p'
0.88,'l','p'
1.03,'l','p'
0.97,'d','p'
0.91,'l','p'
1.17,'l','p'
0.9,'l','p'
0.91,'l','p'
0.84,'l','p'
0.91,'l','p'
1.12,'d','p'
1.04,'d','p'
0.92,'l','p'
0.83,'d','p'
0.89,'d','p'
0.93,'l','p'
0.96,'d','p'
1.15,'l','p'
1.06,'l','p'
0.88,'d','p'
0.93,'l','p'
0.88,'l','p'
1,'l','p'
1.04,'d','p'
0.88,'l','p'
0.87,'d','p'
0.9,'l','p'
1.01,'l','p'
0.89,'d','p'
0.91,'l','p'
1.14,'l','p'
0.78,'l','p'
1.16,'l','p'
1.1,'d','p'
1.02,'d','p'
0.84,'l','p'
0.95,'l','p'
0.95,'d','p'
1.05,'d','p'
0.88,'l','p'
1.06,'l','p'
1,'l','p'
0.98,'l','p'
0.93,'d','p'
1.03,'l','p'
1.09,'l','p'
0.89,'l','p'
0.99,'l','p'
1.09,'l','p'
0.83,'l','p'
0.97,'d','p'
0.85,'d','p'
0.78,'l','p'
1.1,'d','p'
1.06,'l','p'
1.07,'d','p'
0.96,'d','p'
0.91,'l','p'
0.99,'l','p'
0.89,'l','p'
1.12,'l','p'
0.88,'l','p'
0.94,'d','p'
1.09,'l','p'
1.01,'l','p'
1.03,'d','p'
1.05,'d','p'
0.93,'d','p'
1.14,'d','p'
0.93,'l','p'
0.92,'l','p'
0.86,'d','p'
0.86,'d','p'
1.01,'l','p'
1.23,'l','p'
1.13,'l','p'
1.09,'l','p'
0.83,'l','p'
1.01,'d','p'
1.05,'l','p'
1.12,'d','p'
1.02,'d','p'
1.14,'l','p'
1.04,'d','p'
0.87,'d','p'
0.81,'d','p'
1.08,'d','p'
1.08,'d','p'
1.04,'d','p'
1.13,'d','p'
1.04,'d','p'
0.91,'l','p'
0.94,'d','p'
0.96,'l','p'
1.01,'l','p'
1.05,'l','p'
0.82,'l','p'
1.17,'l','p'
1,'d','p'
1.08,'d','p'
1.11,'l','p'
1.08,'l','p'
1.14,'d','p'
1.02,'d','p'
0.99,'d','p'
1.02,'l','p'
1.01,'d','p'
1.14,'d','p'
1.02,'l','p'
1.01,'d','p'
0.94,'d','p'
1.07,'d','p'
0.9,'l','p'
1,'l','p'
1.15,'l','p'
0.99,'l','p'
0.92,'d','p'
0.99,'l','p'
1.05,'l','p'
1.14,'l','p'
0.96,'d','p'
0.98,'l','p'
1.09,'d','p'
0.99,'l','p'
1,'d','p'
1.07,'d','p'
0.92,'l','p'
1.03,'d','p'
1.06,'l','p'
1,'d','p'
1.05,'l','p'
0.89,'l','p'
1.15,'d','p'
1.16,'d','p'
0.99,'d','p'
0.98,'d','p'
1.15,'l','p'
1.07,'d','p'
0.95,'l','p'
0.97,'l','p'
1.04,'l','p'
1.12,'l','p'
0.97,'l','p'
0.88,'l','p'
0.99,'l','p'
0.96,'l','p'
1.04,'d','p'
0.93,'l','p'
0.96,'d','p'
0.81,'d','p'
0.77,'d','p'
1.1,'d','p'
0.96,'d','p'
1.15,'l','p'
1.19,'l','p'
1.17,'l','p'
0.93,'d','p'
1.06,'d','p'
1.04,'d','p'
0.96,'l','p'
1.05,'d','p'
0.98,'d','p'
1.03,'l','p'
0.94,'d','p'
1.22,'d','p'
1.03,'l','p'
1.11,'d','p'
0.91,'d','p'
0.81,'d','p'
1.1,'d','p'
1.19,'d','p'
1.06,'l','p'
0.87,'d','p'
0.94,'l','p'
1.08,'d','p'
0.96,'d','p'
0.85,'l','p'
1.18,'l','p'
1.11,'l','p'
0.88,'d','p'
0.71,'d','p'
1.01,'d','p'
1.06,'d','p'
0.89,'l','p'
1.2,'d','p'
1.03,'d','p'
1.3,'l','p'
0.95,'l','p'
1.25,'d','p'
0.97,'d','p'
0.99,'l','p'
1.07,'d','p'
1.06,'d','p'
0.89,'l','p'
1.02,'d','p'
1,'l','p'
1.02,'l','p'
1.2,'l','p'
0.87,'l','p'
0.98,'d','p'
0.91,'d','p'
0.86,'l','p'
0.97,'l','p'
0.83,'l','p'
1.1,'d','p'
0.91,'l','p'
0.91,'l','p'
1.07,'l','p'
1.01,'l','p'
0.98,'d','p'
0.83,'d','p'
0.96,'l','p'
1.07,'d','p'
1.17,'d','p'
1.09,'l','p'
0.99,'l','p'
1.07,'l','p'
0.97,'d','p'
1.17,'d','p'
1.14,'l','p'
1.06,'l','p'
0.91,'l','p'
1.12,'l','p'
1.13,'d','p'
1.15,'d','p'
1.02,'l','p'
0.96,'d','p'
1.07,'d','p'
1.11,'l','p'
0.94,'l','p'
0.85,'d','p'
1.07,'l','p'
0.74,'d','p'
0.85,'l','p'
1.03,'l','p'
1.09,'d','p'
1.25,'d','p'
0.98,'l','p'
0.92,'l','p'
0.78,'l','p'
0.96,'d','p'
1.01,'d','p'
1.01,'l','p'
0.94,'l','p'
1.13,'l','p'
0.81,'d','p'
1.01,'l','p'
0.97,'l','p'
0.94,'d','p'
0.94,'d','p'
0.97,'d','p'
0.9,'l','p'
0.95,'d','p'
1.06,'d','p'
1.16,'l','p'
0.89,'d','p'
0.9,'l','p'
1.12,'l','p'
1.04,'l','p'
0.82,'d','p'
1.17,'l','p'
1.14,'d','p'
1.14,'d','p'
0.86,'l','p'
0.99,'d','p'
1.02,'d','p'
1.13,'l','p'
0.94,'l','p'
1.01,'l','p'
1.03,'l','p'
0.88,'d','p'
0.97,'d','p'
0.88,'d','p'
1.03,'d','p'
0.93,'d','p'
0.87,'l','p'
1.18,'l','p'
0.94,'l','p'
1.08,'l','p'
0.82,'d','p'
0.98,'l','p'
0.9,'d','p'
0.88,'d','p'
0.82,'d','p'
0.88,'d','p'
0.54,'d','p'
0.8,'d','p'
0.98,'d','p'
0.63,'d','p'
0.76,'d','p'
0.72,'d','p'
0.62,'d','p'
0.65,'d','p'
0.78,'d','p'
0.74,'d','p'
0.72,'d','p'
0.62,'d','p'
0.78,'d','p'
0.83,'d','p'
0.61,'d','p'
0.82,'d','p'
0.7,'d','p'
0.77,'d','p'
0.7,'d','p'
0.69,'d','p'
0.73,'d','p'
0.58,'d','p'
0.72,'d','p'
0.62,'d','p'
0.69,'d','p'
0.8,'d','p'
0.74,'d','p'
0.82,'d','p'
0.68,'d','p'
0.68,'d','p'
0.73,'d','p'
0.76,'d','p'
0.68,'d','p'
0.81,'d','p'
0.83,'d','p'
0.89,'d','p'
0.68,'d','p'
0.83,'d','p'
0.82,'d','p'
0.75,'d','p'
0.96,'d','p'
0.75,'d','p'
0.76,'d','p'
0.7,'d','p'
0.87,'d','p'
0.62,'d','p'
0.58,'d','p'
0.6,'d','p'
0.68,'d','p'
0.74,'d','p'
0.78,'d','p'
0.7,'d','p'
0.88,'d','p'
0.74,'d','p'
0.83,'d','p'
0.9,'d','p'
0.82,'d','p'
0.73,'d','p'
0.71,'d','p'
0.8,'d','p'
0.61,'d','p'
0.78,'d','p'
0.75,'d','p'
0.62,'d','p'
0.95,'d','p'
0.83,'d','p'
0.87,'d','p'
0.63,'d','p'
0.89,'d','p'
0.85,'d','p'
0.78,'d','p'
0.83,'d','p'
0.78,'d','p'
0.78,'d','p'
0.65,'d','p'
0.65,'d','p'
0.64,'d','p'
0.69,'d','p'
0.75,'d','p'
0.73,'d','p'
0.81,'d','p'
0.74,'d','p'
0.65,'d','p'
0.63,'d','p'
0.83,'d','p'
0.9,'d','p'
0.77,'d','p'
0.61,'d','p'
0.6,'d','p'
0.64,'d','p'
0.85,'d','p'
0.63,'d','p'
0.81,'d','p'
0.7,'d','p'
0.75,'d','p'
0.85,'d','p'
0.7,'d','p'
0.83,'d','p'
1.02,'d','p'
0.8,'d','p'
0.77,'d','p'
0.81,'d','p'
0.71,'d','p'
0.82,'d','p'
0.87,'d','p'
0.73,'d','p'
0.78,'d','p'
0.78,'d','p'
0.62,'d','p'
0.78,'d','p'
0.67,'d','p'
0.94,'d','p'
0.8,'d','p'
0.79,'d','p'
0.62,'d','p'
0.76,'d','p'
0.58,'d','p'
0.67,'d','p'
0.66,'d','p'
0.7,'d','p'
0.76,'d','p'
0.74,'d','p'
0.79,'d','p'
0.82,'d','p'
0.72,'d','p'
0.62,'d','p'
0.65,'d','p'
0.73,'d','p'
0.83,'d','p'
0.69,'d','p'
0.81,'d','p'
0.71,'d','p'
0.65,'d','p'
0.79,'d','p'
0.69,'d','p'
0.63,'d','p'
0.84,'d','p'
0.6,'d','p'
0.67,'d','p'
0.78,'d','p'
0.55,'d','p'
0.71,'d','p'
0.81,'d','p'
0.63,'d','p'
0.7,'d','p'
0.76,'d','p'
0.82,'d','p'
0.77,'d','p'
0.64,'d','p'
0.67,'d','p'
0.76,'d','p'
0.75,'d','p'
0.77,'d','p'
0.76,'d','p'
0.63,'d','p'
0.84,'d','p'
0.79,'d','p'
0.72,'d','p'
0.7,'d','p'
0.68,'d','p'
0.75,'d','p'
0.87,'d','p'
0.66,'d','p'
0.85,'d','p'
0.69,'d','p'
0.82,'d','p'
0.76,'d','p'
0.75,'d','p'
0.79,'d','p'
0.89,'d','p'
0.61,'d','p'
0.75,'d','p'
0.76,'d','p'
0.77,'d','p'
0.58,'d','p'
0.76,'d','p'
0.73,'d','p'
0.74,'d','p'
0.86,'d','p'
0.75,'d','p'
0.64,'d','p'
0.75,'d','p'
0.68,'d','p'
0.8,'d','p'
0.8,'d','p'
0.72,'d','p'
0.81,'d','p'
0.58,'d','p'
0.95,'d','p'
0.59,'d','p'
0.68,'d','p'
0.69,'d','p'
0.68,'d','p'
0.75,'d','p'
0.91,'d','p'
0.81,'d','p'
0.61,'d','p'
0.81,'d','p'
0.76,'d','p'
0.86,'d','p'
0.91,'d','p'
0.71,'d','p'
0.87,'d','p'
0.83,'d','p'
0.66,'d','p'
0.78,'d','p'
0.69,'d','p'
0.69,'d','p'
0.69,'d','p'
0.74,'d','p'
0.8,'d','p'
0.87,'d','p'
0.78,'d','p'
0.8,'d','p'
0.81,'d','p'
0.62,'d','p'
0.79,'d','p'
0.65,'d','p'
0.89,'d','p'
0.69,'d','p'
0.64,'d','p'
0.72,'d','p'
0.86,'d','p'
0.75,'d','p'
0.73,'d','p'
0.66,'d','p'
0.65,'d','p'
0.82,'d','p'
0.67,'d','p'
0.7,'d','p'
0.83,'d','p'
0.81,'d','p'
0.73,'d','p'
0.85,'d','p'
0.79,'d','p'
0.7,'d','p'
0.79,'d','p'
0.71,'d','p'
0.8,'d','p'
0.86,'d','p'
0.77,'d','p'
0.66,'d','p'
0.63,'d','p'
0.7,'d','p'
0.77,'d','p'
0.76,'d','p'
0.63,'d','p'
0.84,'d','p'
0.7,'d','p'
0.75,'d','p'
0.7,'d','p'
0.83,'d','p'
0.61,'d','p'
0.81,'d','p'
0.62,'d','p'
0.82,'d','p'
0.81,'d','p'
0.71,'d','p'
0.75,'d','p'
0.71,'d','p'
0.8,'d','p'
0.79,'d','p'
0.58,'d','p'
0.57,'d','p'
0.89,'d','p'
0.81,'d','p'
0.88,'d','p'
0.84,'d','p'
0.8,'d','p'
0.68,'d','p'
0.8,'d','p'
0.73,'d','p'
0.83,'d','p'
0.67,'d','p'
0.76,'d','p'
0.76,'d','p'
0.71,'d','p'
0.79,'d','p'
0.73,'d','p'
0.67,'d','p'
0.83,'d','p'
0.63,'d','p'
0.78,'d','p'
0.81,'d','p'
0.57,'d','p'
0.61,'d','p'
0.71,'d','p'
0.78,'d','p'
0.74,'d','p'
0.86,'d','p'
0.71,'d','p'
0.68,'d','p'
0.74,'d','p'
0.77,'d','p'
0.78,'d','p'
0.7,'d','p'
0.73,'d','p'
0.77,'d','p'
0.65,'d','p'
0.78,'d','p'
0.68,'d','p'
0.77,'d','p'
0.88,'d','p'
0.9,'d','p'
0.86,'d','p'
0.85,'d','p'
0.63,'d','p'
0.65,'d','p'
0.83,'d','p'
0.83,'d','p'
0.71,'d','p'
0.69,'d','p'
0.72,'d','p'
0.86,'d','p'
0.75,'d','p'
0.71,'d','p'
0.65,'d','p'
0.7,'d','p'
0.65,'d','p'
0.88,'d','p'
0.73,'d','p'
0.95,'d','p'
0.75,'d','p'
0.74,'d','p'
0.82,'d','p'
0.82,'d','p'
0.87,'d','p'
0.85,'d','p'
0.68,'d','p'
0.66,'d','p'
0.76,'d','p'
0.78,'d','p'
0.75,'d','p'
0.81,'d','p'
0.65,'d','p'
0.86,'d','p'
0.59,'d','p'
0.78,'d','p'
0.58,'d','p'
0.64,'d','p'
0.77,'d','p'
0.85,'d','p'
0.86,'d','p'
0.81,'d','p'
0.65,'d','p'
0.82,'d','p'
0.69,'d','p'
0.77,'d','p'
0.75,'d','p'
0.75,'d','p'
3.37,'d','e'
4.11,'d','e'
3.99,'d','e'
4.98,'d','e'
3.14,'d','e'
4.55,'d','e'
4.43,'d','e'
4.51,'d','e'
3.71,'d','e'
4.54,'d','e'
3.04,'d','e'
3.29,'d','e'
3.85,'d','e'
4.55,'d','e'
3.98,'d','e'
4.72,'d','e'
4.08,'d','e'
5.19,'d','e'
2.8,'d','e'
4.1,'d','e'
5.22,'d','e'
3.49,'d','e'
4.45,'d','e'
5.13,'d','e'
4.28,'d','e'
3.29,'d','e'
4.45,'d','e'
2.58,'d','e'
4.02,'d','e'
3.09,'d','e'
4.75,'d','e'
4.53,'d','e'
5.32,'d','e'
5.76,'d','e'
3.71,'d','e'
3.73,'d','e'
3.28,'d','e'
3.18,'d','e'
4.09,'d','e'
2.44,'d','e'
4.68,'d','e'
4.56,'d','e'
4.58,'d','e'
4.07,'d','e'
4.75,'d','e'
5.39,'d','e'
2.93,'d','e'
4.5,'d','e'
3.13,'d','e'
4.76,'d','e'
3.59,'d','e'
2.27,'d','e'
3.06,'d','e'
3.92,'d','e'
4.4,'d','e'
4.23,'d','e'
5.03,'d','e'
2.18,'d','e'
4.81,'d','e'
4.32,'d','e'
2.82,'d','e'
4.35,'d','e'
4.5,'d','e'
3.31,'d','e'
4.74,'d','e'
4.23,'d','e'
5.09,'d','e'
4.24,'d','e'
3.73,'d','e'
4.13,'d','e'
4.03,'d','e'
4.45,'d','e'
4.52,'d','e'
3.3,'d','e'
4.53,'d','e'
3.81,'d','e'
4.47,'d','e'
4.34,'d','e'
4.39,'d','e'
3.99,'d','e'
3.98,'d','e'
3.95,'d','e'
4.22,'d','e'
4.32,'d','e'
3.8,'d','e'
4.18,'d','e'
3.12,'d','e'
3.9,'d','e'
5.8,'d','e'
3.59,'d','e'
3.93,'d','e'
4.67,'d','e'
4.46,'d','e'
4.51,'d','e'
4.19,'d','e'
4.32,'d','e'
4.13,'d','e'
3.93,'d','e'
3.63,'d','e'
4.19,'d','e'
3.73,'d','e'
3.76,'d','e'
4.78,'d','e'
4.74,'d','e'
4.91,'d','e'
4.58,'d','e'
5.05,'d','e'
3.7,'d','e'
4.21,'d','e'
2.58,'d','e'
5.11,'d','e'
5.88,'d','e'
3.71,'d','e'
3.61,'d','e'
1.68,'d','e'
3.86,'d','e'
3.62,'d','e'
4.59,'d','e'
5.41,'d','e'
4.58,'d','e'
4.61,'d','e'
4.72,'d','e'
5.03,'d','e'
4.32,'d','e'
3.72,'d','e'
3.7,'d','e'
4.76,'d','e'
3.35,'d','e'
4.27,'d','e'
3.56,'d','e'
3.58,'d','e'
3.94,'d','e'
4.43,'d','e'
3.05,'d','e'
4.22,'d','e'
4.42,'d','e'
3.7,'d','e'
3.4,'d','e'
3.69,'d','e'
3.23,'d','e'
4.91,'d','e'
3.31,'d','e'
4.44,'d','e'
3.78,'d','e'
3.39,'d','e'
4.81,'d','e'
3.44,'d','e'
3.09,'d','e'
3.69,'d','e'
4.13,'d','e'
3.69,'d','e'
4.2,'d','e'
4.29,'d','e'
3.91,'d','e'
3.95,'d','e'
3.96,'d','e'
4.19,'d','e'
3.69,'d','e'
3.68,'d','e'
3.83,'d','e'
4.74,'d','e'
3.04,'d','e'
5.33,'d','e'
4.33,'d','e'
4.3,'d','e'
4.4,'d','e'
4.64,'d','e'
4.37,'d','e'
3.16,'d','e'
5.08,'d','e'
4.88,'d','e'
4.95,'d','e'
4.23,'d','e'
3.88,'d','e'
3.81,'d','e'
3.75,'d','e'
3.74,'d','e'
4.37,'d','e'
4.16,'d','e'
5.38,'d','e'
4.66,'d','e'
4.47,'d','e'
3.35,'d','e'
4.07,'d','e'
3.56,'d','e'
2.49,'d','e'
5.04,'d','e'
3.38,'d','e'
3.51,'d','e'
3.62,'d','e'
4.72,'d','e'
3.82,'d','e'
4.47,'d','e'
3.54,'d','e'
4.87,'d','e'
4.64,'d','e'
3.17,'d','e'
3.99,'d','e'
4.19,'d','e'
3.17,'d','e'
4.51,'d','e'
4.18,'d','e'
3.41,'d','e'
5.07,'d','e'
4.66,'d','e'
3.47,'d','e'
3.19,'d','e'
3.76,'d','e'
3.62,'d','e'
5.5,'d','e'
3.34,'d','e'
4.55,'d','e'
3.81,'d','e'
3.6,'d','e'
5.14,'d','e'
3.31,'d','e'
3.52,'d','e'
3.92,'d','e'
4.45,'d','e'
4.74,'d','e'
3.57,'d','e'
4.42,'d','e'
4.65,'d','e'
2.6,'d','e'
5.69,'d','e'
4.89,'d','e'
3.85,'d','e'
4.65,'d','e'
4.14,'d','e'
4.58,'d','e'
3.66,'d','e'
4.2,'d','e'
2.96,'d','e'
3.8,'d','e'
3.49,'d','e'
4.18,'d','e'
4.8,'d','e'
4.91,'d','e'
4.56,'d','e'
3.54,'d','e'
4.04,'d','e'
4.47,'d','e'
4.12,'d','e'
4.39,'d','e'
4.18,'d','e'
4.62,'d','e'
3.04,'d','e'
3.68,'d','e'
4.33,'d','e'
4.57,'d','e'
4.21,'d','e'
4.05,'d','e'
4.11,'d','e'
3.96,'d','e'
5.73,'d','e'
4.37,'d','e'
3.56,'d','e'
4.34,'d','e'
4.26,'d','e'
4.97,'d','e'
2.83,'d','e'
4.21,'d','e'
4.4,'d','e'
4.81,'d','e'
3.92,'d','e'
4.71,'d','e'
3.95,'d','e'
4.27,'d','e'
5.11,'d','e'
4.66,'d','e'
2.56,'d','e'
4.46,'d','e'
3.15,'d','e'
2.77,'d','e'
3.69,'d','e'
3.83,'d','e'
3.75,'d','e'
3.52,'d','e'
3.34,'d','e'
4.16,'d','e'
3.29,'d','e'
2.89,'d','e'
4.15,'d','e'
4.03,'d','e'
4.92,'d','e'
3.61,'d','e'
4.96,'d','e'
4.95,'d','e'
3.22,'d','e'
3.22,'d','e'
3.6,'d','e'
3.81,'d','e'
3.07,'d','e'
3.88,'d','e'
4.05,'d','e'
4.41,'d','e'
4.34,'d','e'
2.74,'d','e'
3.42,'d','e'
4.01,'d','e'
3.57,'d','e'
3.8,'d','e'
4.39,'d','e'
3.73,'d','e'
4.1,'d','e'
2.82,'d','e'
3.6,'d','e'
4.4,'d','e'
3.86,'d','e'
4.18,'d','e'
4.89,'d','e'
3.52,'d','e'
5.62,'d','e'
3.88,'d','e'
3.53,'d','e'
4.36,'d','e'
3.9,'d','e'
3.85,'d','e'
3.26,'d','e'
3,'d','e'
4.56,'d','e'
5.97,'d','e'
3.41,'d','e'
4.11,'d','e'
4.62,'d','e'
4.98,'d','e'
3.15,'d','e'
5.25,'d','e'
5.08,'d','e'
4.03,'d','e'
4.19,'d','e'
3.38,'d','e'
4.37,'d','e'
4.42,'d','e'
3.14,'d','e'
2.6,'d','e'
3.16,'d','e'
4.71,'d','e'
4.19,'d','e'
3.83,'d','e'
3.82,'d','e'
3.07,'d','e'
4.34,'d','e'
3.53,'d','e'
3.95,'d','e'
3.55,'d','e'
3.17,'d','e'
2.65,'d','e'
4.01,'d','e'
4.2,'d','e'
4.77,'d','e'
4.31,'d','e'
3.98,'d','e'
1.57,'d','p'
1.58,'d','p'
2.39,'d','p'
1.73,'d','p'
2.33,'d','p'
1.92,'d','p'
2.13,'d','p'
2,'d','p'
1.92,'d','p'
1.82,'d','p'
2.66,'d','p'
2.18,'d','p'
1.53,'d','p'
1.49,'d','p'
2.07,'d','p'
2.23,'d','p'
2.07,'d','p'
1.84,'d','p'
2.02,'d','p'
2.59,'d','p'
2.47,'d','p'
2.34,'d','p'
2.27,'d','p'
2.17,'d','p'
2.35,'d','p'
2.11,'d','p'
1.32,'d','p'
1.79,'d','p'
1.64,'d','p'
2.9,'d','p'
2.17,'d','p'
2.26,'d','p'
2.18,'d','p'
1.19,'d','p'
1.99,'d','p'
1.69,'d','p'
1.86,'d','p'
1.93,'d','p'
2.41,'d','p'
2.73,'d','p'
1.92,'d','p'
2.31,'d','p'
1.96,'d','p'
2.19,'d','p'
1.9,'d','p'
2.1,'d','p'
1.68,'d','p'
2.34,'d','p'
1.87,'d','p'
1.87,'d','p'
1.43,'d','p'
2.06,'d','p'
1.78,'d','p'
1.95,'d','p'
2.47,'d','p'
2.05,'d','p'
1.99,'d','p'
2.14,'d','p'
2.06,'d','p'
2.22,'d','p'
1.86,'d','p'
1.37,'d','p'
2.36,'d','p'
2.19,'d','p'
2.65,'d','p'
2.34,'d','p'
2.32,'d','p'
2.25,'d','p'
2.4,'d','p'
2.42,'d','p'
2.29,'d','p'
2.28,'d','p'
2.36,'d','p'
1.87,'d','p'
1.93,'d','p'
2.73,'d','p'
1.67,'d','p'
1.92,'d','p'
1.92,'d','p'
1.36,'d','p'
2.43,'d','p'
2.17,'d','p'
1.74,'d','p'
2.34,'d','p'
1.85,'d','p'
1.86,'d','p'
1.98,'d','p'
1.79,'d','p'
2.25,'d','p'
1.77,'d','p'
2.26,'d','p'
1.75,'d','p'
2.16,'d','p'
2.01,'d','p'
2.23,'d','p'
2.02,'d','p'
2.09,'d','p'
2.8,'d','p'
2.02,'d','p'
1.73,'d','p'
1.59,'d','p'
1.96,'d','p'
2.31,'d','p'
2.62,'d','p'
1.73,'d','p'
1.72,'d','p'
1.95,'d','p'
1.36,'d','p'
1.9,'d','p'
1.87,'d','p'
1.85,'d','p'
2.06,'d','p'
1.97,'d','p'
2.12,'d','p'
1.36,'d','p'
1.37,'d','p'
1.57,'d','p'
1.91,'d','p'
1.75,'d','p'
1.94,'d','p'
1.8,'d','p'
2.58,'d','p'
2.15,'d','p'
1.97,'d','p'
1.69,'d','p'
2.18,'d','p'
2.39,'d','p'
1.25,'d','p'
1.97,'d','p'
2,'d','p'
2.48,'d','p'
1.21,'d','p'
2.34,'d','p'
2.18,'d','p'
1.77,'d','p'
2.05,'d','p'
2.05,'d','p'
2.31,'d','p'
2.28,'d','p'
1.7,'d','p'
1.5,'d','p'
2.33,'d','p'
2.65,'d','p'
1.74,'d','p'
2.35,'d','p'
1.5,'d','p'
2.01,'d','p'
1.85,'d','p'
1.56,'d','p'
1.5,'d','p'
1.76,'d','p'
1.77,'d','p'
1.91,'d','p'
2.43,'d','p'
2.05,'d','p'
1.81,'d','p'
2,'d','p'
2.05,'d','p'
1.85,'d','p'
2,'d','p'
1.66,'d','p'
1.42,'d','p'
2.06,'d','p'
1.74,'d','p'
1.51,'d','p'
2.22,'d','p'
2.07,'d','p'
1.64,'d','p'
1.7,'d','p'
1.51,'d','p'
2.09,'d','p'
2.11,'d','p'
2.31,'d','p'
1.96,'d','p'
2.64,'d','p'
1.32,'d','p'
2.1,'d','p'
2.24,'d','p'
2.33,'d','p'
2.12,'d','p'
2.12,'d','p'
2.01,'d','p'
2.05,'d','p'
1.55,'d','p'
1.88,'d','p'
2.72,'d','p'
1.7,'d','p'
2.2,'d','p'
1.59,'d','p'
1.9,'d','p'
1.92,'d','p'
1.71,'d','p'
2.1,'d','p'
1.95,'d','p'
2.46,'d','p'
2.17,'d','p'
2.09,'d','p'
2.16,'d','p'
2.19,'d','p'
1.89,'d','p'
1.8,'d','p'
1.67,'d','p'
2.13,'d','p'
2.34,'d','p'
2.11,'d','p'
2.24,'d','p'
1.53,'d','p'
2.34,'d','p'
2.36,'d','p'
1.73,'d','p'
1.98,'d','p'
2.16,'d','p'
1.94,'d','p'
1.87,'d','p'
1.82,'d','p'
2.01,'d','p'
1.99,'d','p'
1.42,'d','p'
2.02,'d','p'
1.62,'d','p'
1.38,'d','p'
1.74,'d','p'
1.47,'d','p'
1.9,'d','p'
1.75,'d','p'
1.6,'d','p'
1.63,'d','p'
2.34,'d','p'
1.73,'d','p'
1.63,'d','p'
1.93,'d','p'
2.01,'d','p'
1.88,'d','p'
2.28,'d','p'
2,'d','p'
2.04,'d','p'
2.02,'d','p'
2.08,'d','p'
1.41,'d','p'
2.11,'d','p'
2.18,'d','p'
2.01,'d','p'
2.13,'d','p'
2.25,'d','p'
2.48,'d','p'
2.12,'d','p'
2.53,'d','p'
1.98,'d','p'
1.91,'d','p'
2.26,'d','p'
1.54,'d','p'
2.24,'d','p'
1.99,'d','p'
2.04,'d','p'
1.98,'d','p'
1.54,'d','p'
1.94,'d','p'
1.79,'d','p'
2.06,'d','p'
2.02,'d','p'
1.96,'d','p'
2.57,'d','p'
1.79,'d','p'
2.47,'d','p'
2.11,'d','p'
1.85,'d','p'
1.7,'d','p'
1.76,'d','p'
2.52,'d','p'
1.58,'d','p'
2.49,'d','p'
2.01,'d','p'
2.34,'d','p'
1.42,'d','p'
2.16,'d','p'
2.05,'d','p'
1.62,'d','p'
2,'d','p'
2.55,'d','p'
2.19,'d','p'
1.39,'d','p'
1.94,'d','p'
1.72,'d','p'
1.79,'d','p'
1.43,'d','p'
2.15,'d','p'
1.33,'d','p'
2.28,'d','p'
1.52,'d','p'
1.95,'d','p'
1.86,'d','p'
1.48,'d','p'
2.4,'d','p'
2.18,'d','p'
1.42,'d','p'
2.44,'d','p'
2.3,'d','p'
0.99,'d','p'
1.81,'d','p'
2.15,'d','p'
1.97,'d','p'
2.22,'d','p'
1.52,'d','p'
2.34,'d','p'
1.33,'d','p'
2.01,'d','p'
1.65,'d','p'
2.03,'d','p'
1.92,'d','p'
2.06,'d','p'
1.78,'d','p'
2.56,'d','p'
2.11,'d','p'
1.95,'d','p'
1.93,'d','p'
1.56,'d','p'
2.25,'d','p'
1.97,'d','p'
1.94,'d','p'
1.59,'d','p'
1.62,'d','p'
2.44,'d','p'
1.7,'d','p'
1.96,'d','p'
1.75,'d','p'
1.43,'d','p'
2.16,'d','p'
1.89,'d','p'
2.43,'d','p'
1.97,'d','p'
1.97,'d','p'
2.15,'d','p'
2.08,'d','p'
1.78,'d','p'
1.74,'d','p'
2.33,'d','p'
2.05,'d','p'
1.93,'d','p'
1.85,'d','p'
1.87,'d','p'
2.23,'d','p'
1.84,'d','p'
1.79,'d','p'
2.07,'d','p'
1.87,'d','p'
2.07,'d','p'
2.42,'d','p'
1.53,'d','p'
2.21,'d','p'
1.83,'d','p'
1.85,'d','p'
1.83,'d','p'
2.58,'d','p'
2.42,'d','p'
2.47,'d','p'
2.41,'d','p'
2.55,'d','p'
2.39,'d','p'
2.57,'d','p'
2.5,'d','p'
2.35,'d','p'
2.57,'d','p'
2.39,'d','p'
2.46,'d','p'
2.73,'d','p'
2.41,'d','p'
2.39,'d','p'
2.47,'d','p'
2.42,'d','p'
2.55,'d','p'
2.71,'d','p'
2.61,'d','p'
2.37,'d','p'
2.66,'d','p'
2.37,'d','p'
2.3,'d','p'
2.57,'d','p'
2.44,'d','p'
2.56,'d','p'
2.46,'d','p'
2.47,'d','p'
2.74,'d','p'
2.34,'d','p'
2.49,'d','p'
2.26,'d','p'
2.4,'d','p'
3.2,'d','p'
2.63,'d','p'
2.44,'d','p'
2.45,'d','p'
2.53,'d','p'
2.82,'d','p'
2.57,'d','p'
2.55,'d','p'
2.74,'d','p'
2.44,'d','p'
2.58,'d','p'
2.51,'d','p'
2.48,'d','p'
2.53,'d','p'
2.53,'d','p'
2.23,'d','p'
2.62,'d','p'
2.32,'d','p'
2.73,'d','p'
2.71,'d','p'
2.7,'d','p'
2.55,'d','p'
2.47,'d','p'
2.36,'d','p'
2.5,'d','p'
2.4,'d','p'
2.79,'d','p'
2.3,'d','p'
2.38,'d','p'
2.58,'d','p'
2.41,'d','p'
2.5,'d','p'
2.34,'d','p'
2.49,'d','p'
2.2,'d','p'
2.18,'d','p'
2.75,'d','p'
2.82,'d','p'
2.36,'d','p'
2.91,'d','p'
2.39,'d','p'
2.37,'d','p'
2.55,'d','p'
2.62,'d','p'
2.56,'d','p'
2.36,'d','p'
2.35,'d','p'
2.69,'d','p'
2.6,'d','p'
2.29,'d','p'
2.75,'d','p'
2.47,'d','p'
2.4,'d','p'
2.25,'d','p'
2.47,'d','p'
2.44,'d','p'
2.69,'d','p'
2.36,'d','p'
2.4,'d','p'
2.39,'d','p'
2.9,'d','p'
2.54,'d','p'
2.54,'d','p'
2.27,'d','p'
2.33,'d','p'
2.56,'d','p'
2.7,'d','p'
2.43,'d','p'
2.63,'d','p'
2.66,'d','p'
2.25,'d','p'
2.59,'d','p'
2.48,'d','p'
2.46,'d','p'
2.45,'d','p'
2.81,'d','p'
2.42,'d','p'
2.6,'d','p'
2.55,'d','p'
2.57,'d','p'
2.83,'d','p'
2.27,'d','p'
2.16,'d','p'
2.79,'d','p'
2.5,'d','p'
2.4,'d','p'
2.57,'d','p'
2.74,'d','p'
2.4,'d','p'
2.5,'d','p'
2.33,'d','p'
2.14,'d','p'
2.68,'d','p'
2.6,'d','p'
2.38,'d','p'
2.29,'d','p'
2.5,'d','p'
2.51,'d','p'
2.49,'d','p'
2.66,'d','p'
2.66,'d','p'
2.56,'d','p'
2.57,'d','p'
2.53,'d','p'
2.51,'d','p'
2.27,'d','p'
2.64,'d','p'
2.48,'d','p'
2.43,'d','p'
2.38,'d','p'
2.78,'d','p'
2.6,'d','p'
2.55,'d','p'
2.81,'d','p'
2.5,'d','p'
2.73,'d','p'
1.83,'d','p'
2.27,'d','p'
2.46,'d','p'
2.31,'d','p'
2.41,'d','p'
2.5,'d','p'
2.58,'d','p'
2.42,'d','p'
2.52,'d','p'
2.25,'d','p'
2.66,'d','p'
2.18,'d','p'
2.38,'d','p'
2.46,'d','p'
2.29,'d','p'
2.75,'d','p'
2.37,'d','p'
2.48,'d','p'
2.52,'d','p'
2.69,'d','p'
2.75,'d','p'
2.39,'d','p'
2.62,'d','p'
2.33,'d','p'
2.61,'d','p'
2.42,'d','p'
2.47,'d','p'
2.32,'d','p'
2.23,'d','p'
2.21,'d','p'
2.45,'d','p'
2.78,'d','p'
2.52,'d','p'
2.45,'d','p'
2.39,'d','p'
2.4,'d','p'
2.29,'d','p'
2.39,'d','p'
2.7,'d','p'
2.21,'d','p'
2.45,'d','p'
2.42,'d','p'
2.41,'d','p'
2.44,'d','p'
2.03,'d','p'
2.44,'d','p'
2.48,'d','p'
2.26,'d','p'
2.52,'d','p'
2.36,'d','p'
2.63,'d','p'
2.33,'d','p'
2.27,'d','p'
2.35,'d','p'
2.41,'d','p'
2.25,'d','p'
2.69,'d','p'
2.46,'d','p'
2.48,'d','p'
2.16,'d','p'
2.58,'d','p'
2.67,'d','p'
2.55,'d','p'
2.55,'d','p'
2.25,'d','p'
2.67,'d','p'
2.67,'d','p'
2.48,'d','p'
2.32,'d','p'
2.84,'d','p'
2.49,'d','p'
2.39,'d','p'
2.3,'d','p'
2.28,'d','p'
2.34,'d','p'
2.46,'d','p'
2.36,'d','p'
2.49,'d','p'
2.56,'d','p'
2.41,'d','p'
2.42,'d','p'
2.5,'d','p'
2.3,'d','p'
2.82,'d','p'
2.41,'d','p'
2.63,'d','p'
2.56,'d','p'
2.72,'d','p'
2.56,'d','p'
2.33,'d','p'
2.79,'d','p'
2.87,'d','p'
2.59,'d','p'
2.2,'d','p'
2.68,'d','p'
2.69,'d','p'
2.48,'d','p'
2.68,'d','p'
2.47,'d','p'
2.28,'d','p'
2.8,'d','p'
2.82,'d','p'
2.42,'d','p'
2.35,'d','p'
2.72,'d','p'
2.35,'d','p'
2.62,'d','p'
2.69,'d','p'
2.45,'d','p'
2.6,'d','p'
2.28,'d','p'
2.9,'d','p'
2.28,'d','p'
2.63,'d','p'
2.71,'d','p'
2.47,'d','p'
2.53,'d','p'
2.46,'d','p'
2.14,'d','p'
2.5,'d','p'
2.4,'d','p'
2.63,'d','p'
2.47,'d','p'
2.49,'d','p'
2.44,'d','p'
2.49,'d','p'
2.47,'d','p'
2.81,'d','p'
2.32,'d','p'
2.65,'d','p'
2.47,'d','p'
2.42,'d','p'
2.31,'d','p'
2.38,'d','p'
2.64,'d','p'
2.24,'d','p'
2.47,'d','p'
2.75,'d','p'
2.49,'d','p'
2.75,'d','p'
2.59,'d','p'
2.16,'d','p'
2.55,'d','p'
2.58,'d','p'
2.31,'d','p'
2.26,'d','p'
2.59,'d','p'
2.79,'d','p'
2.44,'d','p'
2.39,'d','p'
2.57,'d','p'
2.48,'d','p'
2.59,'d','p'
2.32,'d','p'
2.63,'d','p'
2.47,'d','p'
2.76,'d','p'
2.78,'d','p'
2.73,'d','p'
2.47,'d','p'
2.51,'d','p'
2.6,'d','p'
2.49,'d','p'
2.66,'d','p'
2.21,'d','p'
2.27,'d','p'
2.36,'d','p'
2.53,'d','p'
2.15,'d','p'
2.67,'d','p'
2.68,'d','p'
2.58,'d','p'
2.5,'d','p'
2.4,'d','p'
2.32,'d','p'
2.51,'d','p'
2.49,'d','p'
2.25,'d','p'
2.72,'d','p'
2.63,'d','p'
2.72,'d','p'
2.42,'d','p'
2.65,'d','p'
2.72,'d','p'
2.58,'d','p'
2.42,'d','p'
2.69,'d','p'
2.67,'d','p'
2.65,'d','p'
2.69,'d','p'
2.4,'d','p'
2.35,'d','p'
2.37,'d','p'
2.39,'d','p'
2.51,'d','p'
2.81,'d','p'
2.52,'d','p'
2.46,'d','p'
2.22,'d','p'
2.42,'d','p'
2.49,'d','p'
2.65,'d','p'
2.55,'d','p'
2.19,'d','p'
1.38,'l','e'
1.39,'d','e'
1.45,'d','e'
1.47,'d','e'
1.44,'d','e'
1.49,'d','e'
1.69,'d','e'
1.79,'d','e'
1.48,'l','e'
1.49,'d','e'
1.55,'l','e'
1.67,'l','e'
1.39,'d','e'
1.61,'d','e'
1.26,'d','e'
1.52,'d','e'
1.59,'l','e'
1.83,'l','e'
1.47,'d','e'
1.39,'l','e'
1.62,'d','e'
1.49,'l','e'
1.3,'l','e'
1.6,'d','e'
1.42,'l','e'
1.9,'d','e'
1.5,'l','e'
1.13,'l','e'
1.43,'l','e'
1.35,'d','e'
1.4,'l','e'
1.63,'d','e'
1.22,'l','e'
1.56,'d','e'
1.59,'l','e'
1.37,'d','e'
1.06,'l','e'
1.79,'d','e'
1.37,'l','e'
1.38,'l','e'
1.58,'d','e'
1.39,'d','e'
1.51,'l','e'
1.52,'l','e'
1.45,'d','e'
1.5,'d','e'
1.44,'d','e'
1.52,'d','e'
1.37,'l','e'
1.38,'d','e'
1.45,'l','e'
1.36,'l','e'
1.43,'d','e'
1.45,'l','e'
1.59,'l','e'
1.53,'d','e'
1.59,'l','e'
1.68,'l','e'
1.48,'d','e'
1.58,'d','e'
1.55,'d','e'
1.59,'d','e'
1.64,'d','e'
1.67,'l','e'
1.55,'d','e'
1.38,'l','e'
1.56,'d','e'
1.46,'d','e'
1.45,'d','e'
1.7,'d','e'
1.58,'d','e'
1.16,'l','e'
1.41,'d','e'
1.54,'l','e'
1.23,'d','e'
1.52,'d','e'
1.33,'d','e'
1.45,'l','e'
1.55,'d','e'
1.42,'l','e'
1.61,'d','e'
1.19,'d','e'
1.39,'d','e'
1.65,'l','e'
1.41,'l','e'
1.69,'l','e'
1.46,'d','e'
1.83,'l','e'
1.73,'l','e'
1.57,'l','e'
1.51,'l','e'
1.5,'d','e'
1.7,'d','e'
1.33,'d','e'
1.69,'l','e'
1.63,'l','e'
1.68,'d','e'
1.57,'d','e'
1.51,'d','e'
1.17,'d','e'
1.58,'d','e'
1.47,'d','e'
1.68,'l','e'
1.32,'d','e'
1.55,'d','e'
1.37,'d','e'
1.3,'d','e'
1.67,'l','e'
1.35,'d','e'
1.6,'l','e'
1.51,'l','e'
1.56,'l','e'
1.54,'l','e'
1.56,'d','e'
1.63,'l','e'
1.57,'l','e'
1.6,'l','e'
1.69,'d','e'
1.43,'d','e'
1.45,'d','e'
1.44,'d','e'
1.44,'d','e'
1.35,'l','e'
1.69,'l','e'
1.47,'l','e'
1.32,'d','e'
1.27,'l','e'
1.25,'l','e'
1.27,'l','e'
1.61,'d','e'
1.38,'l','e'
1.79,'d','e'
1.29,'l','e'
1.61,'l','e'
1.36,'l','e'
1.3,'l','e'
1.4,'l','e'
1.18,'d','e'
1.61,'l','e'
1.48,'l','e'
1.4,'l','e'
1.62,'d','e'
1.45,'l','e'
1.45,'l','e'
1.44,'d','e'
1.87,'l','e'
1.6,'d','e'
1.66,'d','e'
1.56,'d','e'
1.42,'l','e'
1.36,'l','e'
1.43,'d','e'
1.47,'l','e'
1.55,'l','e'
1.59,'d','e'
1.73,'l','e'
1.58,'d','e'
1.44,'d','e'
1.19,'d','e'
1.72,'l','e'
1.7,'l','e'
1.51,'d','e'
1.46,'d','e'
1.53,'d','e'
1.58,'d','e'
1.59,'d','e'
1.22,'d','e'
1.54,'d','e'
1.46,'l','e'
1.44,'l','e'
1.44,'l','e'
1.46,'l','e'
1.46,'d','e'
1.79,'d','e'
1.48,'l','e'
1.55,'d','e'
1.45,'d','e'
1.61,'d','e'
1.52,'d','e'
1.42,'d','e'
1.43,'l','e'
1.41,'l','e'
1.53,'l','e'
1.52,'d','e'
1.46,'d','e'
1.77,'d','e'
1.59,'l','e'
1.61,'d','e'
1.48,'d','e'
1.41,'d','e'
1.49,'d','e'
1.47,'d','e'
1.77,'l','e'
1.41,'d','e'
1.63,'d','e'
1.6,'l','e'
1.55,'l','e'
1.54,'l','e'
1.61,'l','e'
1.64,'d','e'
1.52,'l','e'
1.13,'d','e'
1.41,'d','e'
1.85,'d','e'
1.57,'d','e'
1.48,'d','e'
1.63,'d','e'
1.48,'l','e'
1.34,'d','e'
1.62,'d','e'
1.64,'d','e'
1.26,'d','e'
1.39,'d','e'
1.8,'l','e'
1.44,'l','e'
1.16,'d','e'
1.19,'l','e'
1.58,'l','e'
1.26,'d','e'
1.67,'l','e'
1.42,'l','e'
1.42,'l','e'
1.47,'l','e'
0.98,'l','e'
1.25,'d','e'
1.03,'d','e'
1.67,'l','e'
1.45,'d','e'
1.64,'d','e'
1.33,'l','e'
1.46,'d','e'
1.56,'l','e'
1.58,'l','e'
1.44,'l','e'
1.61,'l','e'
1.65,'l','e'
1.33,'l','e'
1.44,'d','e'
1.63,'l','e'
1.34,'d','e'
1.65,'d','e'
1.44,'d','e'
1.67,'l','e'
1.59,'l','e'
1.55,'d','e'
1.32,'l','e'
1.52,'d','e'
1.4,'l','e'
1.55,'d','e'
0.97,'l','e'
1.51,'d','e'
1.65,'d','e'
1.52,'d','e'
1.55,'l','e'
1.76,'l','e'
1.36,'l','e'
1.35,'d','e'
1.33,'l','e'
1.71,'d','e'
1.3,'l','e'
1.44,'d','e'
1.75,'d','e'
1.7,'l','e'
1.45,'d','e'
1.42,'l','e'
1.22,'d','e'
1.81,'d','e'
1.37,'d','e'
1.4,'l','e'
1.55,'l','e'
1.71,'l','e'
1.46,'l','e'
1.38,'d','e'
1.51,'l','e'
1.71,'d','e'
1.43,'l','e'
1.3,'l','e'
1.36,'d','e'
1.69,'l','e'
1.35,'l','e'
1.81,'l','e'
1.45,'l','e'
1.55,'d','e'
1.49,'d','e'
1.63,'l','e'
1.5,'l','e'
1.67,'l','e'
1.42,'d','e'
1.17,'l','e'
1.29,'d','e'
1.41,'l','e'
1.39,'d','e'
1.64,'l','e'
1.36,'d','e'
1.52,'d','e'
1.53,'d','e'
1.76,'l','e'
1.39,'d','e'
1.17,'l','e'
1.36,'l','e'
1.58,'d','e'
1.29,'l','e'
1.49,'l','e'
1.32,'d','e'
1.51,'d','e'
1.53,'l','e'
1.37,'d','e'
1.37,'d','e'
1.3,'d','e'
1.57,'l','e'
1.63,'d','e'
1.28,'l','e'
1.25,'d','e'
1.37,'l','e'
1.61,'d','e'
1.59,'l','e'
1.54,'l','e'
1.26,'d','e'
1.48,'l','e'
1.18,'d','e'
1.49,'l','e'
1.22,'l','e'
1.42,'d','e'
1.38,'l','e'
1.51,'d','e'
1.49,'d','e'
1.39,'l','e'
1.52,'d','e'
1.43,'l','e'
1.7,'l','e'
1.34,'l','e'
1.25,'d','e'
1.69,'d','e'
1.57,'l','e'
1.48,'d','e'
1.68,'d','e'
1.45,'l','e'
1.5,'l','e'
1.65,'d','e'
1.24,'d','e'
1.35,'d','e'
1.56,'l','e'
1.67,'l','e'
1.63,'d','e'
1.23,'d','e'
1.32,'d','e'
1.21,'l','e'
1.44,'d','e'
1.7,'l','e'
1.22,'l','e'
1.59,'l','e'
1.23,'l','e'
1.37,'l','e'
1.03,'d','e'
0.79,'h','e'
0.93,'d','e'
1.02,'h','e'
0.97,'h','e'
0.9,'h','e'
1.23,'h','e'
0.99,'h','e'
0.81,'d','e'
1.08,'h','e'
0.95,'d','e'
0.66,'d','e'
1.1,'h','e'
1.52,'d','e'
0.93,'d','e'
1.23,'d','e'
0.86,'h','e'
0.73,'h','e'
0.98,'d','e'
0.76,'h','e'
1.21,'h','e'
1.1,'h','e'
0.73,'d','e'
0.72,'h','e'
1.26,'d','e'
1.21,'d','e'
0.77,'h','e'
1.14,'h','e'
0.89,'d','e'
0.91,'h','e'
1.02,'h','e'
0.98,'d','e'
1.3,'d','e'
0.94,'h','e'
0.88,'h','e'
1,'h','e'
0.87,'h','e'
1.26,'h','e'
1.07,'h','e'
0.97,'d','e'
0.67,'d','e'
1.13,'h','e'
0.97,'h','e'
1.03,'d','e'
0.91,'h','e'
1.15,'h','e'
1.11,'d','e'
1.09,'h','e'
1.22,'d','e'
0.98,'h','e'
0.93,'d','e'
1.19,'d','e'
1.1,'d','e'
0.95,'h','e'
0.98,'h','e'
1.09,'d','e'
1.04,'d','e'
0.99,'d','e'
0.96,'d','e'
0.79,'d','e'
1.17,'d','e'
0.97,'h','e'
0.89,'h','e'
0.91,'h','e'
0.93,'h','e'
0.59,'d','e'
0.83,'d','e'
1.15,'h','e'
0.85,'d','e'
0.73,'d','e'
0.89,'d','e'
1.04,'h','e'
0.9,'d','e'
0.98,'d','e'
1.24,'d','e'
1,'d','e'
0.85,'h','e'
1.09,'d','e'
0.87,'h','e'
0.95,'d','e'
1.35,'d','e'
1.26,'h','e'
0.91,'d','e'
1.08,'h','e'
1.54,'h','e'
1.4,'h','e'
1.36,'d','e'
1.12,'h','e'
1.13,'d','e'
1.06,'h','e'
0.91,'h','e'
0.99,'d','e'
1.07,'h','e'
0.77,'d','e'
1.08,'h','e'
0.85,'d','e'
1.04,'d','e'
1.43,'d','e'
0.99,'h','e'
0.94,'d','e'
0.89,'d','e'
0.54,'d','e'
1.01,'h','e'
0.74,'d','e'
0.88,'h','e'
0.83,'h','e'
0.97,'d','e'
0.94,'h','e'
0.91,'d','e'
0.96,'d','e'
0.72,'d','e'
1.08,'h','e'
1.14,'d','e'
0.89,'d','e'
0.69,'d','e'
1.15,'d','e'
1.03,'d','e'
0.55,'h','e'
1.02,'h','e'
0.77,'h','e'
0.95,'h','e'
0.89,'d','e'
0.78,'d','e'
1.31,'h','e'
0.99,'h','e'
0.78,'d','e'
0.92,'h','e'
1.16,'h','e'
0.86,'h','e'
1.22,'d','e'
0.86,'d','e'
0.98,'h','e'
0.95,'h','e'
0.8,'d','e'
0.7,'h','e'
1,'h','e'
1.05,'d','e'
1.44,'h','e'
0.86,'d','e'
1.14,'d','e'
0.84,'h','e'
1.24,'h','e'
1.04,'d','e'
1.09,'h','e'
1.53,'d','e'
0.84,'h','e'
1.25,'h','e'
0.93,'h','e'
1.07,'d','e'
0.7,'h','e'
0.68,'h','e'
1.04,'d','e'
0.88,'d','e'
1,'d','e'
0.9,'h','e'
1.14,'h','e'
0.81,'h','e'
1.13,'h','e'
0.93,'d','e'
0.75,'h','e'
0.73,'d','e'
1.14,'d','e'
1.12,'d','e'
0.82,'d','e'
1.08,'d','e'
0.96,'d','e'
0.99,'d','e'
1.05,'d','e'
0.99,'h','e'
1.1,'d','e'
1.16,'d','e'
0.73,'d','e'
1.01,'h','e'
0.96,'d','e'
1.06,'h','e'
1.26,'d','e'
1.23,'h','e'
0.88,'h','e'
1.17,'d','e'
1,'h','e'
1.01,'d','e'
0.89,'h','e'
1.04,'d','e'
1.18,'h','e'
1.01,'d','e'
1.29,'d','e'
1.01,'d','e'
0.99,'d','e'
0.76,'h','e'
0.83,'d','e'
1.19,'h','e'
1.4,'h','e'
0.92,'d','e'
0.9,'h','e'
1.16,'h','e'
1.06,'h','e'
1.14,'d','e'
1.01,'d','e'
0.81,'d','e'
1.27,'h','e'
1.27,'h','e'
0.95,'d','e'
1.17,'d','e'
0.95,'d','e'
0.98,'d','e'
0.81,'d','e'
0.7,'d','e'
0.75,'d','e'
0.97,'d','e'
1.18,'h','e'
0.87,'h','e'
1.04,'h','e'
1.14,'d','e'
1.03,'d','e'
0.81,'d','e'
0.99,'h','e'
0.98,'h','e'
0.93,'d','e'
1.37,'h','e'
0.98,'h','e'
0.82,'h','e'
0.66,'d','e'
1.09,'h','e'
0.75,'d','e'
0.84,'h','e'
0.84,'h','e'
1.19,'d','e'
1.14,'d','e'
1.05,'d','e'
0.98,'h','e'
0.95,'h','e'
0.65,'h','e'
1.05,'d','e'
1.01,'h','e'
0.86,'d','e'
1.03,'d','e'
1.08,'h','e'
1.36,'h','e'
1.1,'d','e'
0.77,'d','e'
0.87,'h','e'
1.12,'d','e'
1.15,'h','e'
1,'d','e'
0.91,'d','e'
0.96,'d','e'
0.98,'d','e'
0.88,'h','e'
0.69,'d','e'
0.89,'h','e'
0.88,'h','e'
0.92,'h','e'
0.71,'d','e'
1.03,'d','e'
1.01,'d','e'
0.84,'h','e'
1.07,'d','e'
1.22,'d','e'
0.89,'d','e'
0.91,'h','e'
0.94,'h','e'
1.22,'h','e'
1.02,'d','e'
1.01,'d','e'
0.95,'d','e'
0.91,'d','e'
0.99,'h','e'
1.07,'h','e'
0.85,'d','e'
1.19,'d','e'
0.9,'d','e'
1.12,'d','e'
1.03,'h','e'
1.09,'d','e'
0.98,'h','e'
0.85,'d','e'
1.29,'h','e'
0.96,'d','e'
1.34,'h','e'
0.84,'h','e'
0.7,'h','e'
0.93,'d','e'
1.08,'d','e'
0.62,'h','e'
1.06,'d','e'
1.02,'d','e'
1.11,'d','e'
0.56,'d','e'
0.92,'d','e'
1.11,'d','e'
0.85,'d','e'
0.56,'d','e'
1.31,'d','e'
0.86,'h','e'
0.61,'d','e'
0.88,'h','e'
0.97,'d','e'
1,'d','e'
0.99,'d','e'
0.78,'d','e'
1.04,'h','e'
1.06,'h','e'
0.87,'d','e'
1.22,'d','e'
0.62,'d','e'
0.89,'h','e'
1.02,'d','e'
0.89,'d','e'
0.94,'h','e'
1.17,'h','e'
1.16,'d','e'
0.92,'d','e'
1.14,'h','e'
0.87,'h','e'
1.23,'h','e'
1.04,'d','e'
1.13,'h','e'
1.07,'d','e'
0.87,'d','e'
0.84,'h','e'
1.21,'h','e'
1.19,'d','e'
0.93,'d','e'
0.93,'h','e'
0.89,'h','e'
1.06,'h','e'
0.84,'h','e'
0.86,'d','e'
1.17,'d','e'
0.57,'h','e'
1.13,'d','e'
1.1,'h','e'
1.14,'h','e'
0.82,'d','e'
1.24,'h','e'
0.91,'h','e'
1.03,'h','e'
0.82,'d','e'
1.02,'d','e'
1.02,'d','e'
1.04,'d','e'
0.81,'d','e'
1.12,'d','e'
0.99,'d','e'
0.91,'h','e'
1.18,'d','e'
0.9,'d','e'
0.57,'h','e'
0.8,'d','e'
1.11,'h','e'
1.02,'d','e'
0.81,'d','e'
0.75,'h','e'
3.31,'l','p'
3.4,'l','p'
3.15,'d','p'
3.51,'l','p'
3.51,'l','p'
3.73,'l','p'
3.5,'l','p'
3.5,'l','p'
3.04,'d','p'
3.59,'d','p'
3.26,'d','p'
3.38,'d','p'
3.16,'l','p'
3.35,'d','p'
3.57,'l','p'
2.35,'l','p'
4.19,'d','p'
4.73,'d','p'
4.32,'l','p'
2.98,'l','p'
3.52,'l','p'
3.42,'l','p'
3.59,'d','p'
3.37,'l','p'
3.08,'d','p'
2.94,'d','p'
3.89,'d','p'
3.79,'l','p'
3.56,'d','p'
3.58,'l','p'
3.04,'l','p'
3.39,'l','p'
3.23,'l','p'
2.81,'d','p'
3.47,'l','p'
3.76,'l','p'
3.83,'l','p'
2.92,'l','p'
2.78,'l','p'
3.43,'d','p'
4.05,'d','p'
2.69,'d','p'
3,'l','p'
2.47,'l','p'
4.8,'d','p'
3.77,'d','p'
3.69,'l','p'
3.48,'l','p'
2.24,'d','p'
3.03,'d','p'
3.06,'l','p'
3.48,'d','p'
3.18,'d','p'
3.97,'l','p'
2.27,'l','p'
4.18,'l','p'
3.57,'d','p'
3.8,'d','p'
2.8,'d','p'
3.19,'l','p'
3.44,'d','p'
3.48,'l','p'
2.66,'d','p'
4.66,'d','p'
3.39,'d','p'
4.33,'l','p'
3.93,'l','p'
4.3,'d','p'
4.38,'l','p'
3.37,'d','p'
3.38,'l','p'
3.86,'l','p'
3.79,'l','p'
4.34,'l','p'
3.14,'l','p'
3.77,'l','p'
3.78,'l','p'
3.35,'l','p'
3.98,'d','p'
3.74,'l','p'
3.21,'l','p'
3.1,'l','p'
2.47,'d','p'
4.32,'d','p'
3.29,'d','p'
3.22,'l','p'
3.98,'l','p'
3.43,'l','p'
2.55,'d','p'
3.6,'l','p'
3.19,'l','p'
2.64,'l','p'
4.18,'l','p'
2.9,'l','p'
3.24,'l','p'
4.4,'l','p'
3.22,'l','p'
3.6,'l','p'
3.08,'d','p'
2.78,'l','p'
3.45,'d','p'
4.11,'l','p'
4.91,'d','p'
2.83,'d','p'
3.53,'d','p'
3.43,'d','p'
4.26,'l','p'
3.92,'l','p'
3.14,'l','p'
3.22,'d','p'
3.83,'d','p'
2.81,'d','p'
3.51,'d','p'
3.79,'d','p'
3.87,'d','p'
3.32,'d','p'
2.97,'l','p'
3.86,'d','p'
3.33,'d','p'
3.1,'d','p'
4.17,'l','p'
3.56,'d','p'
3.72,'l','p'
3.56,'l','p'
3.56,'l','p'
2.56,'d','p'
3.13,'d','p'
2.83,'l','p'
3.48,'d','p'
3.57,'d','p'
4.23,'d','p'
3.7,'l','p'
2.83,'l','p'
3.51,'d','p'
4.47,'d','p'
3.77,'d','p'
3.58,'d','p'
3.3,'l','p'
4.24,'d','p'
2.62,'l','p'
3.43,'d','p'
4.15,'l','p'
3.34,'d','p'
3.59,'l','p'
3.89,'l','p'
3.2,'d','p'
3.18,'l','p'
3.87,'d','p'
3.68,'l','p'
2.92,'l','p'
3.68,'d','p'
3.87,'d','p'
3.08,'d','p'
3.5,'d','p'
3.57,'d','p'
2.97,'d','p'
3.33,'d','p'
2.85,'d','p'
4.74,'d','p'
3.68,'l','p'
3.05,'l','p'
4.38,'d','p'
3.6,'d','p'
3.45,'d','p'
2.54,'d','p'
3.17,'l','p'
4.07,'d','p'
2.37,'l','p'
3.65,'d','p'
2.94,'l','p'
2.83,'d','p'
3.67,'d','p'
3.88,'d','p'
4.52,'l','p'
3.44,'d','p'
3.87,'l','p'
3.66,'l','p'
3.51,'l','p'
3.03,'d','p'
3.46,'l','p'
4.06,'l','p'
2.62,'d','p'
4.07,'l','p'
3.15,'l','p'
2.81,'l','p'
4.29,'d','p'
3.87,'l','p'
3.13,'d','p'
3.51,'l','p'
4.19,'l','p'
3.65,'d','p'
3.07,'l','p'
3.12,'l','p'
3.6,'l','p'
3.86,'l','p'
3.97,'l','p'
4.78,'d','p'
3.33,'l','p'
2.97,'d','p'
3.64,'l','p'
4.8,'l','p'
3.39,'l','p'
3.9,'l','p'
3.89,'l','p'
3.8,'l','p'
3.8,'l','p'
2.94,'l','p'
3.82,'d','p'
2.42,'d','p'
3.2,'l','p'
4.37,'l','p'
2.98,'l','p'
4.04,'l','p'
3.86,'l','p'
3.69,'l','p'
3.81,'l','p'
4.05,'l','p'
2.59,'d','p'
4.45,'l','p'
3.31,'d','p'
3.01,'d','p'
3.64,'d','p'
3.42,'d','p'
2.87,'l','p'
3.57,'d','p'
3.79,'d','p'
4,'d','p'
3.13,'l','p'
4.04,'d','p'
4.29,'l','p'
3.63,'d','p'
4.37,'d','p'
4.6,'d','p'
3.37,'d','p'
3.93,'d','p'
2.7,'l','p'
4.06,'l','p'
3.9,'d','p'
4.51,'d','p'
3.49,'l','p'
3.05,'l','p'
2.59,'l','p'
3.12,'d','p'
3.48,'d','p'
3.1,'d','p'
3.57,'d','p'
4.26,'l','p'
2.96,'d','p'
4.56,'l','p'
3.52,'d','p'
3.48,'l','p'
3.21,'d','p'
3.71,'l','p'
3.58,'d','p'
3.51,'l','p'
3.34,'l','p'
3.45,'d','p'
2.9,'l','p'
3.95,'d','p'
3.04,'l','p'
2.86,'l','p'
3.79,'l','p'
3.39,'d','p'
3.55,'l','p'
3.44,'l','p'
3.55,'l','p'
3.94,'d','p'
4.03,'l','p'
4.22,'d','p'
3.51,'l','p'
3.98,'d','p'
3.15,'d','p'
4.01,'d','p'
4.57,'d','p'
4.29,'d','p'
3.71,'l','p'
3.73,'l','p'
3.41,'l','p'
3.23,'l','p'
3.45,'d','p'
4.07,'l','p'
3.75,'l','p'
3.94,'l','p'
3.77,'l','p'
3.78,'d','p'
3.92,'l','p'
3.54,'l','p'
3.68,'l','p'
3.39,'d','p'
2.95,'l','p'
4.15,'d','p'
2.67,'d','p'
3.44,'d','p'
4.01,'l','p'
3.58,'d','p'
4.04,'l','p'
3.64,'d','p'
3.87,'l','p'
3.61,'l','p'
4.13,'d','p'
4.17,'d','p'
3.29,'l','p'
3.04,'l','p'
3.77,'d','p'
3.79,'l','p'
3.88,'l','p'
4.17,'d','p'
2.89,'l','p'
3.57,'d','p'
4.35,'d','p'
2.81,'l','p'
3.98,'d','p'
3.12,'l','p'
4.06,'d','p'
2.9,'l','p'
3.5,'l','p'
3.54,'d','p'
3.5,'d','p'
2.84,'l','p'
3.38,'d','p'
3.05,'l','p'
3.01,'d','p'
3.45,'d','p'
3.47,'l','p'
2.86,'l','p'
3.9,'l','p'
3.68,'d','p'
3.88,'l','p'
2.74,'l','p'
3.33,'l','p'
3.29,'d','p'
3.41,'l','p'
2.76,'d','p'
3.09,'l','p'
3.32,'d','p'
2.88,'d','p'
3.14,'l','p'
2.58,'l','p'
4.21,'d','p'
4.22,'l','p'
3.04,'l','p'
3.46,'d','p'
3.79,'l','p'
3.41,'l','p'
2.95,'l','p'
4.49,'d','p'
3.85,'l','p'
3.51,'d','p'
3.6,'l','p'
2.8,'l','p'
2.93,'l','p'
3.41,'l','p'
3.94,'l','p'
1.57,'h','e'
1.4,'d','e'
1.41,'d','e'
1.56,'d','e'
1.76,'d','e'
1.29,'d','e'
1.59,'d','e'
1.47,'h','e'
1.66,'h','e'
1.55,'h','e'
1.61,'h','e'
1.67,'d','e'
1.8,'g','e'
1.63,'g','e'
1.52,'g','e'
1.74,'h','e'
1.4,'h','e'
1.71,'g','e'
1.38,'h','e'
1.5,'g','e'
1.55,'h','e'
1.46,'h','e'
1.51,'h','e'
1.09,'h','e'
1.38,'h','e'
1.58,'g','e'
1.41,'g','e'
1.42,'d','e'
1.53,'h','e'
1.39,'h','e'
1.32,'h','e'
1.45,'h','e'
1.58,'h','e'
1.62,'g','e'
1.43,'h','e'
1.45,'g','e'
1.8,'d','e'
1.3,'h','e'
1.43,'h','e'
1.49,'h','e'
1.49,'d','e'
1.7,'g','e'
1.6,'d','e'
1.24,'d','e'
1.4,'h','e'
1.62,'d','e'
1.33,'d','e'
1.38,'g','e'
1.31,'g','e'
1.8,'d','e'
1.64,'g','e'
1.34,'d','e'
1.44,'h','e'
1.51,'g','e'
1.51,'d','e'
1.19,'g','e'
1.79,'h','e'
1.26,'g','e'
1.51,'g','e'
1.46,'h','e'
1.56,'h','e'
1.4,'g','e'
1.55,'d','e'
1.48,'g','e'
1.51,'g','e'
1.55,'h','e'
1.69,'g','e'
1.79,'h','e'
1.42,'d','e'
1.27,'g','e'
1.49,'d','e'
1.61,'h','e'
1.7,'h','e'
1.22,'d','e'
1.25,'h','e'
1.43,'h','e'
1.69,'g','e'
1.46,'d','e'
1.72,'d','e'
1.73,'g','e'
1.67,'g','e'
1.33,'h','e'
1.36,'g','e'
1.4,'h','e'
1.48,'h','e'
1.4,'g','e'
1.34,'h','e'
1.64,'g','e'
1.58,'g','e'
1.77,'d','e'
1.57,'h','e'
1.25,'h','e'
1.51,'g','e'
1.3,'g','e'
1.62,'g','e'
1.49,'g','e'
1.54,'d','e'
1.21,'d','e'
1.7,'g','e'
1.63,'g','e'
1.34,'g','e'
1.62,'d','e'
1.58,'h','e'
1.48,'h','e'
1.54,'h','e'
1.31,'d','e'
1.45,'h','e'
1.36,'g','e'
1.53,'h','e'
1.64,'d','e'
1.63,'h','e'
1.61,'d','e'
1.78,'g','e'
1.53,'g','e'
1.84,'d','e'
1.61,'g','e'
1.72,'h','e'
1.36,'g','e'
1.49,'g','e'
1.53,'g','e'
1.44,'h','e'
1.59,'g','e'
1.58,'d','e'
1.51,'g','e'
1.39,'h','e'
1.41,'g','e'
1.45,'h','e'
1.67,'h','e'
1.22,'h','e'
1.43,'h','e'
1.45,'g','e'
1.6,'d','e'
1.77,'h','e'
1.86,'h','e'
1.55,'h','e'
1.34,'d','e'
1.33,'g','e'
1.43,'d','e'
1.27,'d','e'
1.47,'d','e'
1.7,'d','e'
1.31,'d','e'
1.85,'h','e'
1.59,'h','e'
1.24,'d','e'
1.45,'g','e'
1.39,'d','e'
1.21,'h','e'
1.21,'h','e'
1.59,'d','e'
1.28,'g','e'
1.39,'d','e'
1.51,'h','e'
1.4,'g','e'
1.59,'h','e'
1.42,'d','e'
1.76,'d','e'
1.45,'g','e'
1.79,'d','e'
1.38,'d','e'
1.54,'g','e'
1.62,'g','e'
1.49,'g','e'
1.29,'h','e'
1.58,'h','e'
1.53,'h','e'
1.5,'h','e'
1.45,'h','e'
1.64,'g','e'
1.6,'h','e'
1.51,'d','e'
1.34,'d','e'
1.5,'h','e'
1.66,'d','e'
1.71,'g','e'
1.39,'g','e'
1.37,'g','e'
1.32,'g','e'
1.5,'h','e'
1.55,'d','e'
1.64,'d','e'
1.53,'g','e'
1.53,'d','e'
1.51,'h','e'
1.58,'g','e'
1.49,'d','e'
1.18,'g','e'
1.2,'g','e'
1.66,'d','e'
1.52,'g','e'
1.53,'d','e'
1.53,'d','e'
1.38,'d','e'
1.62,'d','e'
1.37,'h','e'
1.43,'h','e'
1.64,'g','e'
1.16,'g','e'
1.7,'h','e'
1.51,'d','e'
1.43,'h','e'
1.66,'d','e'
1.5,'g','e'
1.37,'d','e'
1.47,'h','e'
1.65,'d','e'
1.45,'d','e'
1.52,'d','e'
1.27,'d','e'
1.63,'g','e'
1.78,'g','e'
1.41,'d','e'
1.48,'g','e'
1.6,'d','e'
1.51,'g','e'
1.59,'g','e'
1.22,'d','e'
1.53,'h','e'
1.54,'d','e'
1.52,'g','e'
1.64,'g','e'
1.4,'g','e'
1.63,'h','e'
1.42,'g','e'
1.34,'d','e'
1.49,'d','e'
1.28,'d','e'
1.61,'h','e'
1.8,'h','e'
1.29,'g','e'
1.37,'d','e'
1.61,'h','e'
1.47,'d','e'
1.36,'g','e'
1.36,'d','e'
1.56,'d','e'
1.23,'d','e'
1.93,'d','e'
1.37,'h','e'
1.47,'g','e'
1.35,'h','e'
1.73,'g','e'
1.65,'g','e'
1.45,'g','e'
1.45,'d','e'
1.47,'d','e'
1.47,'h','e'
1.49,'d','e'
1.32,'g','e'
1.46,'g','e'
1.62,'g','e'
1.56,'d','e'
1.78,'d','e'
1.43,'h','e'
1.68,'h','e'
1.31,'g','e'
1.51,'d','e'
1.61,'d','e'
1.57,'d','e'
1.43,'g','e'
1.66,'g','e'
1.5,'d','e'
1.48,'d','e'
1.46,'h','e'
1.16,'h','e'
1.45,'g','e'
1.35,'h','e'
1.68,'h','e'
1.49,'g','e'
1.52,'g','e'
1.67,'h','e'
1.75,'h','e'
1.43,'d','e'
1.33,'g','e'
1.2,'h','e'
1.55,'d','e'
1.4,'d','e'
1.32,'g','e'
1.47,'h','e'
1.69,'g','e'
1.38,'d','e'
1.5,'g','e'
1.43,'g','e'
1.44,'d','e'
1.67,'h','e'
1.7,'g','e'
1.52,'d','e'
1.32,'d','e'
1.55,'h','e'
1.63,'g','e'
1.52,'h','e'
1.39,'d','e'
1.72,'h','e'
1.42,'g','e'
1.56,'g','e'
1.22,'d','e'
1.43,'g','e'
1.19,'d','e'
1.18,'g','e'
1.56,'h','e'
1.43,'d','e'
1.8,'g','e'
1.35,'g','e'
1.52,'h','e'
1.69,'g','e'
1.16,'d','e'
1.41,'h','e'
1.6,'h','e'
1.67,'g','e'
1.65,'h','e'
1.51,'h','e'
1.42,'h','e'
1.35,'g','e'
1.6,'g','e'
1.48,'d','e'
1.23,'d','e'
1.62,'d','e'
1.72,'h','e'
1.73,'g','e'
1.4,'d','e'
1.74,'d','e'
1.41,'d','e'
1.23,'h','e'
1.42,'d','e'
1.54,'g','e'
1.42,'h','e'
1.49,'d','e'
1.7,'g','e'
1.75,'g','e'
1.53,'h','e'
1.73,'g','e'
1.44,'g','e'
1.55,'d','e'
1.53,'d','e'
1.48,'d','e'
1.36,'g','e'
1.31,'g','e'
1.59,'d','e'
1.53,'d','e'
1.33,'d','e'
1.29,'h','e'
1.45,'h','e'
1.45,'g','e'
1.5,'d','e'
1.37,'h','e'
1.27,'g','e'
1.52,'d','e'
1.48,'d','e'
1.67,'h','e'
1.41,'g','e'
1.35,'g','e'
1.46,'d','e'
1.64,'d','e'
1.03,'d','p'
0.7,'d','p'
0.88,'d','p'
0.71,'d','p'
0.72,'d','p'
0.59,'d','p'
0.69,'d','p'
0.64,'d','p'
0.75,'d','p'
0.83,'d','p'
0.61,'d','p'
0.7,'d','p'
0.61,'d','p'
0.76,'d','p'
0.8,'d','p'
0.66,'d','p'
0.75,'d','p'
0.62,'d','p'
0.79,'d','p'
0.69,'d','p'
0.7,'d','p'
0.64,'d','p'
0.62,'d','p'
0.62,'d','p'
0.72,'d','p'
0.56,'d','p'
0.72,'d','p'
0.86,'d','p'
0.78,'d','p'
0.68,'d','p'
0.75,'d','p'
0.62,'d','p'
0.65,'d','p'
0.62,'d','p'
0.75,'d','p'
0.82,'d','p'
0.38,'d','p'
0.54,'d','p'
0.83,'d','p'
0.66,'d','p'
0.77,'d','p'
0.48,'d','p'
0.58,'d','p'
0.62,'d','p'
0.61,'d','p'
0.79,'d','p'
0.57,'d','p'
0.64,'d','p'
0.7,'d','p'
0.64,'d','p'
0.77,'d','p'
0.59,'d','p'
0.8,'d','p'
0.59,'d','p'
0.64,'d','p'
0.69,'d','p'
0.61,'d','p'
0.9,'d','p'
0.71,'d','p'
0.71,'d','p'
0.69,'d','p'
0.76,'d','p'
0.54,'d','p'
0.73,'d','p'
0.56,'d','p'
0.71,'d','p'
0.77,'d','p'
0.83,'d','p'
0.66,'d','p'
0.68,'d','p'
0.66,'d','p'
0.7,'d','p'
0.61,'d','p'
0.83,'d','p'
0.67,'d','p'
0.7,'d','p'
0.76,'d','p'
0.61,'d','p'
0.49,'d','p'
0.83,'d','p'
0.71,'d','p'
0.6,'d','p'
0.66,'d','p'
0.78,'d','p'
0.54,'d','p'
0.67,'d','p'
0.63,'d','p'
0.75,'d','p'
0.74,'d','p'
0.82,'d','p'
0.75,'d','p'
0.73,'d','p'
0.84,'d','p'
0.81,'d','p'
0.61,'d','p'
0.68,'d','p'
0.57,'d','p'
0.76,'d','p'
0.52,'d','p'
0.73,'d','p'
0.61,'d','p'
0.58,'d','p'
0.72,'d','p'
0.56,'d','p'
0.75,'d','p'
0.97,'d','p'
0.6,'d','p'
0.83,'d','p'
0.91,'d','p'
0.78,'d','p'
0.64,'d','p'
0.86,'d','p'
0.72,'d','p'
0.62,'d','p'
0.77,'d','p'
0.88,'d','p'
0.58,'d','p'
0.78,'d','p'
0.62,'d','p'
0.56,'d','p'
0.68,'d','p'
0.78,'d','p'
0.54,'d','p'
0.74,'d','p'
0.78,'d','p'
0.77,'d','p'
0.56,'d','p'
0.66,'d','p'
0.64,'d','p'
0.71,'d','p'
0.78,'d','p'
0.6,'d','p'
0.55,'d','p'
0.81,'d','p'
0.84,'d','p'
0.77,'d','p'
0.71,'d','p'
0.55,'d','p'
0.71,'d','p'
0.83,'d','p'
0.73,'d','p'
0.73,'d','p'
0.57,'d','p'
0.82,'d','p'
0.67,'d','p'
0.74,'d','p'
0.63,'d','p'
0.62,'d','p'
0.74,'d','p'
0.68,'d','p'
0.74,'d','p'
0.76,'d','p'
0.73,'d','p'
0.69,'d','p'
0.44,'d','p'
0.7,'d','p'
0.72,'d','p'
0.58,'d','p'
0.76,'d','p'
0.48,'d','p'
0.74,'d','p'
0.78,'d','p'
0.76,'d','p'
0.61,'d','p'
0.71,'d','p'
0.6,'d','p'
0.66,'d','p'
0.62,'d','p'
0.82,'d','p'
0.72,'d','p'
0.66,'d','p'
0.79,'d','p'
0.57,'d','p'
0.8,'d','p'
0.61,'d','p'
0.52,'d','p'
0.72,'d','p'
0.66,'d','p'
0.73,'d','p'
0.73,'d','p'
0.69,'d','p'
0.66,'d','p'
0.57,'d','p'
0.76,'d','p'
0.68,'d','p'
0.55,'d','p'
0.7,'d','p'
0.72,'d','p'
0.86,'d','p'
0.69,'d','p'
0.92,'d','p'
0.66,'d','p'
0.78,'d','p'
0.67,'d','p'
0.62,'d','p'
0.55,'d','p'
0.73,'d','p'
0.64,'d','p'
0.61,'d','p'
0.53,'d','p'
0.75,'d','p'
0.71,'d','p'
0.78,'d','p'
0.74,'d','p'
0.63,'d','p'
0.74,'d','p'
0.75,'d','p'
0.67,'d','p'
0.76,'d','p'
0.71,'d','p'
0.82,'d','p'
0.73,'d','p'
0.71,'d','p'
0.67,'d','p'
0.66,'d','p'
0.65,'d','p'
0.68,'d','p'
0.65,'d','p'
0.8,'d','p'
0.62,'d','p'
0.68,'d','p'
0.54,'d','p'
0.91,'d','p'
0.53,'d','p'
0.67,'d','p'
0.63,'d','p'
0.75,'d','p'
0.62,'d','p'
0.8,'d','p'
0.62,'d','p'
0.72,'d','p'
0.56,'d','p'
0.84,'d','p'
0.72,'d','p'
0.55,'d','p'
0.8,'d','p'
0.79,'d','p'
0.77,'d','p'
0.71,'d','p'
0.67,'d','p'
0.71,'d','p'
0.8,'d','p'
0.72,'d','p'
0.6,'d','p'
0.86,'d','p'
0.5,'d','p'
0.83,'d','p'
0.67,'d','p'
0.8,'d','p'
0.85,'d','p'
0.75,'d','p'
0.73,'d','p'
0.67,'d','p'
0.68,'d','p'
0.68,'d','p'
0.82,'d','p'
0.61,'d','p'
0.7,'d','p'
0.73,'d','p'
0.8,'d','p'
0.66,'d','p'
0.66,'d','p'
0.72,'d','p'
0.85,'d','p'
0.74,'d','p'
0.83,'d','p'
0.5,'d','p'
0.64,'d','p'
0.69,'d','p'
0.65,'d','p'
0.72,'d','p'
0.86,'d','p'
0.51,'d','p'
0.78,'d','p'
0.67,'d','p'
0.63,'d','p'
0.66,'d','p'
0.64,'d','p'
0.84,'d','p'
0.67,'d','p'
0.68,'d','p'
0.76,'d','p'
0.8,'d','p'
0.74,'d','p'
0.58,'d','p'
0.71,'d','p'
0.54,'d','p'
0.61,'d','p'
0.82,'d','p'
0.54,'d','p'
0.67,'d','p'
0.73,'d','p'
0.63,'d','p'
0.85,'d','p'
0.61,'d','p'
0.65,'d','p'
0.78,'d','p'
0.57,'d','p'
0.82,'d','p'
0.72,'d','p'
0.6,'d','p'
0.83,'d','p'
0.8,'d','p'
0.74,'d','p'
0.75,'d','p'
0.79,'d','p'
0.63,'d','p'
0.73,'d','p'
0.97,'d','p'
0.6,'d','p'
0.56,'d','p'
0.8,'d','p'
0.85,'d','p'
0.72,'d','p'
0.78,'d','p'
0.55,'d','p'
0.53,'d','p'
0.69,'d','p'
0.55,'d','p'
0.57,'d','p'
0.66,'d','p'
0.78,'d','p'
0.77,'d','p'
0.56,'d','p'
0.55,'d','p'
0.65,'d','p'
0.77,'d','p'
0.65,'d','p'
0.65,'d','p'
0.8,'d','p'
0.68,'d','p'
0.69,'d','p'
0.8,'d','p'
0.72,'d','p'
0.7,'d','p'
0.83,'d','p'
0.69,'d','p'
0.74,'d','p'
0.64,'d','p'
0.69,'d','p'
0.6,'d','p'
0.67,'d','p'
0.72,'d','p'
0.82,'d','p'
0.67,'d','p'
0.69,'d','p'
0.5,'d','p'
0.56,'d','p'
0.65,'d','p'
0.57,'d','p'
0.65,'d','p'
0.74,'d','p'
0.75,'d','p'
0.69,'g','p'
0.81,'g','p'
0.81,'g','p'
0.68,'g','p'
0.78,'g','p'
0.67,'g','p'
0.72,'g','p'
0.78,'g','p'
0.59,'g','p'
0.78,'g','p'
0.8,'g','p'
0.68,'g','p'
0.65,'g','p'
0.67,'g','p'
0.64,'g','p'
0.85,'g','p'
0.68,'g','p'
0.81,'g','p'
0.58,'g','p'
0.62,'g','p'
0.6,'g','p'
0.8,'g','p'
0.76,'g','p'
0.76,'g','p'
0.81,'g','p'
0.74,'g','p'
0.92,'g','p'
0.74,'g','p'
0.62,'g','p'
0.57,'g','p'
0.68,'g','p'
0.84,'g','p'
0.87,'g','p'
0.79,'g','p'
0.75,'g','p'
0.8,'g','p'
0.63,'g','p'
0.69,'g','p'
0.83,'g','p'
0.65,'g','p'
0.64,'g','p'
0.62,'g','p'
0.71,'g','p'
0.83,'g','p'
0.57,'g','p'
0.74,'g','p'
0.62,'g','p'
0.58,'g','p'
0.72,'g','p'
0.66,'g','p'
0.57,'g','p'
0.89,'g','p'
0.63,'g','p'
0.73,'g','p'
0.62,'g','p'
0.72,'g','p'
0.77,'g','p'
0.66,'g','p'
0.69,'g','p'
0.71,'g','p'
0.75,'g','p'
0.68,'g','p'
0.63,'g','p'
0.68,'g','p'
0.65,'g','p'
0.82,'g','p'
0.72,'g','p'
0.76,'g','p'
0.76,'g','p'
0.61,'g','p'
0.67,'g','p'
0.7,'g','p'
0.73,'g','p'
0.86,'g','p'
0.77,'g','p'
0.72,'g','p'
0.62,'g','p'
0.72,'g','p'
0.71,'g','p'
0.77,'g','p'
0.54,'g','p'
0.84,'g','p'
0.94,'g','p'
0.58,'g','p'
0.78,'g','p'
0.83,'g','p'
0.6,'g','p'
0.76,'g','p'
0.8,'g','p'
0.51,'g','p'
0.86,'g','p'
0.86,'g','p'
0.64,'g','p'
0.6,'g','p'
0.65,'g','p'
0.68,'g','p'
0.78,'g','p'
0.68,'g','p'
0.55,'g','p'
0.78,'g','p'
0.64,'g','p'
0.8,'g','p'
0.88,'g','p'
0.56,'g','p'
0.71,'g','p'
0.56,'g','p'
0.59,'g','p'
0.6,'g','p'
0.54,'g','p'
0.62,'g','p'
0.7,'g','p'
0.69,'g','p'
0.73,'g','p'
0.78,'g','p'
0.59,'g','p'
0.5,'g','p'
0.85,'g','p'
0.8,'g','p'
0.71,'g','p'
0.72,'g','p'
0.66,'g','p'
0.62,'g','p'
0.74,'g','p'
0.72,'g','p'
0.58,'g','p'
0.66,'g','p'
0.74,'g','p'
0.7,'g','p'
0.59,'g','p'
0.58,'g','p'
0.78,'g','p'
0.86,'g','p'
0.75,'g','p'
0.76,'g','p'
0.69,'g','p'
0.68,'g','p'
0.73,'g','p'
0.76,'g','p'
0.53,'g','p'
0.82,'g','p'
0.86,'g','p'
0.89,'g','p'
0.69,'g','p'
0.71,'g','p'
0.76,'g','p'
0.67,'g','p'
0.74,'g','p'
0.62,'g','p'
0.54,'g','p'
0.88,'g','p'
0.8,'g','p'
0.61,'g','p'
0.52,'g','p'
0.75,'g','p'
0.66,'g','p'
0.54,'g','p'
0.73,'g','p'
0.7,'g','p'
0.72,'g','p'
0.57,'g','p'
0.62,'g','p'
0.69,'g','p'
0.79,'g','p'
0.71,'g','p'
0.56,'g','p'
0.86,'g','p'
0.86,'g','p'
0.89,'g','p'
0.76,'g','p'
0.81,'g','p'
0.82,'g','p'
0.61,'g','p'
0.59,'g','p'
0.66,'g','p'
0.6,'g','p'
0.65,'g','p'
0.77,'g','p'
0.79,'g','p'
0.77,'g','p'
0.8,'g','p'
0.53,'g','p'
0.76,'g','p'
0.67,'g','p'
0.83,'g','p'
0.61,'g','p'
0.71,'g','p'
0.89,'g','p'
0.76,'g','p'
0.82,'g','p'
0.53,'g','p'
0.74,'g','p'
0.72,'g','p'
0.74,'g','p'
0.47,'g','p'
0.47,'g','p'
0.68,'g','p'
0.66,'g','p'
0.71,'g','p'
0.68,'g','p'
0.59,'g','p'
0.83,'g','p'
0.44,'g','p'
0.89,'g','p'
0.82,'g','p'
0.93,'g','p'
0.71,'g','p'
0.89,'g','p'
0.64,'g','p'
0.74,'g','p'
0.75,'g','p'
0.78,'g','p'
0.57,'g','p'
0.85,'g','p'
0.76,'g','p'
0.64,'g','p'
0.73,'g','p'
0.7,'g','p'
0.69,'g','p'
0.66,'g','p'
0.76,'g','p'
0.66,'g','p'
0.72,'g','p'
0.52,'g','p'
0.71,'g','p'
0.56,'g','p'
0.61,'g','p'
0.73,'g','p'
0.64,'g','p'
0.83,'g','p'
0.63,'g','p'
0.67,'g','p'
0.83,'g','p'
0.66,'g','p'
0.7,'g','p'
0.78,'g','p'
0.74,'g','p'
0.73,'g','p'
0.81,'g','p'
0.7,'g','p'
0.71,'g','p'
0.7,'g','p'
0.69,'g','p'
0.64,'g','p'
0.7,'g','p'
0.63,'g','p'
0.51,'g','p'
0.73,'g','p'
0.68,'g','p'
0.67,'g','p'
0.69,'g','p'
0.66,'g','p'
0.79,'g','p'
0.6,'g','p'
0.71,'g','p'
0.58,'g','p'
0.55,'g','p'
0.61,'g','p'
0.8,'g','p'
0.67,'g','p'
0.76,'g','p'
0.71,'g','p'
0.49,'g','p'
0.67,'g','p'
0.75,'g','p'
0.72,'g','p'
0.69,'g','p'
0.67,'g','p'
0.78,'g','p'
0.79,'g','p'
0.68,'g','p'
0.68,'g','p'
0.63,'g','p'
0.74,'g','p'
0.88,'g','p'
0.79,'g','p'
0.78,'g','p'
0.63,'g','p'
0.68,'g','p'
0.61,'g','p'
0.87,'g','p'
0.81,'g','p'
0.65,'g','p'
0.7,'g','p'
0.65,'g','p'
0.78,'g','p'
0.79,'g','p'
0.67,'g','p'
0.87,'g','p'
0.51,'g','p'
0.66,'g','p'
0.85,'g','p'
0.5,'g','p'
0.54,'g','p'
0.5,'g','p'
0.59,'g','p'
0.83,'g','p'
0.93,'g','p'
0.6,'g','p'
0.71,'g','p'
0.51,'g','p'
0.81,'g','p'
0.74,'g','p'
0.98,'g','p'
0.83,'g','p'
0.61,'g','p'
0.73,'g','p'
0.59,'g','p'
0.58,'g','p'
0.62,'g','p'
0.54,'g','p'
0.7,'g','p'
0.56,'g','p'
0.75,'g','p'
0.7,'g','p'
0.51,'g','p'
0.7,'g','p'
0.59,'g','p'
0.64,'g','p'
0.73,'g','p'
0.58,'g','p'
0.58,'g','p'
0.81,'g','p'
0.53,'g','p'
0.65,'g','p'
0.81,'g','p'
0.67,'g','p'
0.83,'g','p'
0.67,'g','p'
0.72,'g','p'
0.82,'g','p'
0.71,'g','p'
0.6,'g','p'
0.63,'g','p'
0.69,'g','p'
0.81,'g','p'
0.79,'g','p'
0.7,'g','p'
0.71,'g','p'
0.82,'g','p'
0.71,'g','p'
0.65,'g','p'
0.68,'g','p'
0.7,'g','p'
0.67,'g','p'
0.74,'g','p'
0.75,'g','p'
0.77,'g','p'
0.5,'g','p'
0.84,'g','p'
0.66,'g','p'
0.7,'g','p'
0.7,'g','p'
0.64,'g','p'
1.53,'h','p'
1.76,'h','p'
1.34,'h','p'
1.49,'d','p'
1.8,'h','p'
1.33,'h','p'
1.5,'h','p'
1.42,'h','p'
1.44,'d','p'
1.69,'d','p'
1.46,'h','p'
1.55,'d','p'
1.43,'h','p'
1.4,'d','p'
1.61,'d','p'
1.53,'d','p'
1.25,'h','p'
1.34,'h','p'
1.59,'d','p'
1.16,'d','p'
1.35,'h','p'
1.49,'d','p'
1.8,'d','p'
1.48,'h','p'
1.58,'d','p'
1.26,'h','p'
1.64,'d','p'
1.8,'d','p'
1.44,'h','p'
1.59,'d','p'
1.72,'d','p'
1.4,'d','p'
1.6,'d','p'
1.76,'h','p'
1.24,'d','p'
1.65,'h','p'
1.45,'d','p'
1.54,'d','p'
1.25,'h','p'
1.4,'d','p'
1.47,'d','p'
1.35,'d','p'
1.49,'d','p'
1.58,'h','p'
1.3,'h','p'
1.36,'h','p'
1.42,'d','p'
1.24,'d','p'
1.56,'h','p'
1.73,'h','p'
1.47,'d','p'
1.35,'d','p'
1.39,'d','p'
1.8,'h','p'
1.6,'h','p'
1.52,'h','p'
1.49,'d','p'
1.55,'d','p'
1.77,'d','p'
1.86,'h','p'
1.58,'h','p'
1.62,'d','p'
1.52,'h','p'
1.42,'d','p'
1.84,'h','p'
1.3,'h','p'
1.53,'d','p'
1.43,'d','p'
1.23,'d','p'
1.46,'h','p'
1.56,'h','p'
1.38,'h','p'
1.87,'d','p'
1.54,'d','p'
1.67,'h','p'
1.7,'h','p'
1.48,'d','p'
1.4,'h','p'
1.4,'d','p'
1.31,'h','p'
1.53,'d','p'
1.49,'h','p'
1.76,'h','p'
1.51,'h','p'
1.64,'d','p'
1.54,'d','p'
1.47,'h','p'
1.49,'d','p'
1.06,'d','p'
1.41,'h','p'
1.66,'d','p'
1.2,'d','p'
1.36,'h','p'
1.62,'d','p'
1.44,'d','p'
1.43,'d','p'
1.78,'h','p'
1.52,'h','p'
1.37,'d','p'
1.56,'d','p'
1.5,'h','p'
1.51,'h','p'
1.63,'d','p'
1.32,'h','p'
1.4,'d','p'
1.3,'d','p'
1.44,'d','p'
1.52,'h','p'
1.23,'d','p'
1.41,'h','p'
1.66,'h','p'
1.96,'h','p'
1.37,'h','p'
1.9,'h','p'
1.72,'d','p'
1.31,'d','p'
1.61,'d','p'
1.17,'h','p'
1.25,'h','p'
1.63,'d','p'
1.25,'d','p'
1.39,'h','p'
1.62,'d','p'
1.64,'d','p'
1.31,'d','p'
1.62,'h','p'
1.73,'h','p'
1.66,'h','p'
1.31,'h','p'
1.42,'h','p'
1.6,'h','p'
1.44,'h','p'
1.7,'h','p'
1.6,'h','p'
1.21,'d','p'
1.32,'h','p'
1.7,'d','p'
1.87,'h','p'
1.44,'h','p'
1.74,'d','p'
1.26,'h','p'
1.62,'d','p'
1.79,'h','p'
1.46,'d','p'
1.49,'d','p'
1.43,'h','p'
1.57,'d','p'
1.57,'d','p'
1.86,'h','p'
1.5,'h','p'
1.52,'d','p'
1.63,'d','p'
1.37,'d','p'
1.48,'d','p'
1.24,'h','p'
1.48,'h','p'
1.43,'d','p'
1.5,'d','p'
1.55,'h','p'
1.39,'d','p'
1.77,'h','p'
1.43,'d','p'
1.68,'d','p'
1.4,'h','p'
1.71,'h','p'
1.35,'h','p'
1.5,'h','p'
1.43,'h','p'
1.06,'h','p'
1.55,'h','p'
1.6,'h','p'
1.73,'h','p'
1.55,'d','p'
1.56,'d','p'
1.1,'h','p'
1.59,'h','p'
1.36,'d','p'
1.57,'d','p'
1.87,'h','p'
1.59,'d','p'
1.31,'d','p'
1.43,'h','p'
1.7,'h','p'
1.51,'h','p'
1.28,'h','p'
1.6,'h','p'
1.46,'d','p'
1.36,'d','p'
1.29,'h','p'
1.81,'h','p'
1.63,'h','p'
1.52,'d','p'
1.37,'h','p'
1.64,'h','p'
1.72,'d','p'
1.73,'d','p'
1.51,'h','p'
1.43,'d','p'
1.48,'d','p'
1.5,'h','p'
1.72,'d','p'
1.38,'h','p'
1.58,'d','p'
1.53,'d','p'
1.7,'h','p'
1.41,'d','p'
1.7,'h','p'
1.15,'d','p'
1.71,'d','p'
1.61,'d','p'
1.53,'h','p'
1.66,'d','p'
1.2,'h','p'
1.67,'h','p'
1.3,'d','p'
1.74,'h','p'
1.71,'d','p'
1.49,'d','p'
1.44,'h','p'
1.62,'d','p'
1.62,'d','p'
1.75,'h','p'
1.54,'d','p'
1.65,'h','p'
1.46,'d','p'
1.7,'h','p'
1.7,'d','p'
1.32,'d','p'
1.23,'h','p'
1.25,'h','p'
1.62,'d','p'
1.54,'h','p'
1.37,'h','p'
1.27,'d','p'
1.62,'h','p'
1.48,'h','p'
1.12,'d','p'
1.46,'d','p'
1.49,'h','p'
1.49,'h','p'
1.23,'h','p'
1.34,'h','p'
1.7,'h','p'
1.49,'h','p'
1.49,'h','p'
1.4,'h','p'
1.46,'h','p'
1.5,'d','p'
1.52,'d','p'
1.65,'d','p'
1.34,'d','p'
1.43,'h','p'
1.4,'h','p'
1.55,'d','p'
1.48,'h','p'
1.64,'d','p'
1.63,'h','p'
1.32,'d','p'
1.47,'h','p'
1.78,'h','p'
1.7,'d','p'
1.63,'h','p'
1.69,'d','p'
1.34,'d','p'
1.4,'h','p'
1.45,'h','p'
1.43,'h','p'
1.82,'d','p'
1.33,'d','p'
1.53,'h','p'
2.01,'d','p'
1.35,'h','p'
1.28,'h','p'
1.4,'h','p'
1.67,'h','p'
1.5,'d','p'
1.25,'d','p'
1.62,'h','p'
1.63,'h','p'
1.27,'d','p'
1.22,'h','p'
1.46,'h','p'
1.53,'h','p'
1.61,'h','p'
1.54,'d','p'
1.67,'d','p'
1.5,'h','p'
1.85,'h','p'
1.67,'d','p'
1.74,'h','p'
1.56,'d','p'
1.52,'d','p'
1.45,'d','p'
1.57,'d','p'
1.7,'h','p'
1.41,'d','p'
1.48,'h','p'
1.17,'h','p'
1.22,'d','p'
1.29,'d','p'
1.38,'h','p'
1.81,'h','p'
1.46,'d','p'
1.23,'d','p'
1.47,'h','p'
1.36,'h','p'
1.5,'h','p'
1.85,'h','p'
1.93,'h','p'
1.36,'d','p'
1.53,'d','p'
1.44,'h','p'
1.58,'h','p'
1.61,'h','p'
1.79,'h','p'
1.7,'h','p'
1.48,'d','p'
1.61,'h','p'
1.39,'d','p'
1.55,'d','p'
1.6,'h','p'
1.34,'h','p'
1.64,'d','p'
1.46,'h','p'
1.67,'d','p'
1.66,'h','p'
1.53,'h','p'
1.5,'h','p'
1.14,'d','p'
1.56,'d','p'
1.6,'d','p'
1.71,'d','p'
1.66,'d','p'
1.51,'h','p'
1.61,'d','p'
1.5,'d','p'
1.36,'d','p'
1.49,'h','p'
1.36,'h','p'
1.69,'d','p'
1.49,'d','p'
1.61,'d','p'
1.45,'h','p'
1.65,'h','p'
1.56,'h','p'
1.28,'h','p'
1.56,'d','p'
1.56,'d','p'
1.54,'d','p'
1.51,'d','p'
1.68,'h','p'
1.56,'h','p'
1.59,'d','p'
8.25,'d','p'
7.66,'d','p'
5.9,'d','p'
6.78,'d','p'
7.15,'d','p'
6.08,'d','p'
5.54,'d','p'
7.93,'d','p'
7.16,'d','p'
7.25,'d','p'
6.52,'d','p'
6.19,'d','p'
6.79,'d','p'
7.89,'d','p'
7.59,'d','p'
7.08,'d','p'
7.82,'d','p'
7.01,'d','p'
7.45,'d','p'
7,'d','p'
8.46,'d','p'
6.75,'d','p'
7.85,'d','p'
6.73,'d','p'
6.82,'d','p'
8.49,'d','p'
6.48,'d','p'
4.83,'d','p'
7.27,'d','p'
6.13,'d','p'
7.65,'d','p'
7.39,'d','p'
7.89,'d','p'
8.18,'d','p'
5.97,'d','p'
6.67,'d','p'
7.12,'d','p'
6.67,'d','p'
8.35,'d','p'
5.6,'d','p'
7.35,'d','p'
6.71,'d','p'
10.23,'d','p'
7.32,'d','p'
7.85,'d','p'
6.21,'d','p'
8.27,'d','p'
7.85,'d','p'
8.44,'d','p'
7.68,'d','p'
7.78,'d','p'
8.67,'d','p'
9.32,'d','p'
7.24,'d','p'
8.61,'d','p'
8.74,'d','p'
6.65,'d','p'
4.93,'d','p'
7.19,'d','p'
8.59,'d','p'
7.98,'d','p'
7.43,'d','p'
6.27,'d','p'
7.7,'d','p'
4.76,'d','p'
8.01,'d','p'
6.77,'d','p'
6.45,'d','p'
5.87,'d','p'
4.94,'d','p'
7.71,'d','p'
7.91,'d','p'
7.34,'d','p'
8.15,'d','p'
6.81,'d','p'
7.63,'d','p'
6.87,'d','p'
6.09,'d','p'
7.63,'d','p'
7.7,'d','p'
8.22,'d','p'
7.07,'d','p'
4.77,'d','p'
7.03,'d','p'
6.74,'d','p'
6.33,'d','p'
6.58,'d','p'
6.17,'d','p'
6.66,'d','p'
6.57,'d','p'
5.33,'d','p'
7.22,'d','p'
8.42,'d','p'
8.43,'d','p'
5.59,'d','p'
6.77,'d','p'
6.62,'d','p'
6.25,'d','p'
6.05,'d','p'
7.78,'d','p'
7.22,'d','p'
7.76,'d','p'
7.28,'d','p'
7.02,'d','p'
6.76,'d','p'
7.45,'d','p'
7.53,'d','p'
6.23,'d','p'
7.72,'d','p'
8.58,'d','p'
4.93,'d','p'
4.6,'d','p'
7.07,'d','p'
8.3,'d','p'
8.8,'d','p'
7.74,'d','p'
6.74,'d','p'
7.62,'d','p'
6.66,'d','p'
5.54,'d','p'
7.19,'d','p'
5.62,'d','p'
7.49,'d','p'
6.53,'d','p'
5.5,'d','p'
6.61,'d','p'
5.65,'d','p'
5.97,'d','p'
8.12,'d','p'
8.04,'d','p'
8.73,'d','p'
6.62,'d','p'
6.65,'d','p'
6.74,'d','p'
7.36,'d','p'
6.28,'d','p'
6.25,'d','p'
7.22,'d','p'
8.06,'d','p'
6.92,'d','p'
6.44,'d','p'
7.37,'d','p'
7.64,'d','p'
8.13,'d','p'
5.87,'d','p'
6.41,'d','p'
8.22,'d','p'
6.41,'d','p'
6.54,'d','p'
6.62,'d','p'
6.46,'d','p'
6.14,'d','p'
8.11,'d','p'
7.98,'d','p'
7.26,'d','p'
7.75,'d','p'
7.64,'d','p'
7.8,'d','p'
6.76,'d','p'
5.8,'d','p'
6.34,'d','p'
5.93,'d','p'
7.03,'d','p'
7.24,'d','p'
6.06,'d','p'
9.2,'d','p'
6.45,'d','p'
7.37,'d','p'
6.62,'d','p'
6.55,'d','p'
7.91,'d','p'
5.76,'d','p'
6.48,'d','p'
5.9,'d','p'
7.93,'d','p'
5.28,'d','p'
6.76,'d','p'
5.68,'d','p'
5.9,'d','p'
6.9,'d','p'
8.33,'d','p'
6.54,'d','p'
6.34,'d','p'
6.87,'d','p'
5.7,'d','p'
4.44,'d','p'
7.41,'d','p'
7.06,'d','p'
6.23,'d','p'
7.02,'d','p'
7.42,'d','p'
6.32,'d','p'
7.47,'d','p'
5.94,'d','p'
4.86,'d','p'
8.17,'d','p'
7.73,'d','p'
5.03,'d','p'
7.56,'d','p'
6.04,'d','p'
8.3,'d','p'
7.11,'d','p'
7.03,'d','p'
5.22,'d','p'
8.3,'d','p'
4.84,'d','p'
7.38,'d','p'
6.7,'d','p'
7.79,'d','p'
5.68,'d','p'
7.05,'d','p'
6.35,'d','p'
7.12,'d','p'
5.71,'d','p'
6.83,'d','p'
6.47,'d','p'
9.57,'d','p'
7.39,'d','p'
6.08,'d','p'
5.96,'d','p'
7.6,'d','p'
7.93,'d','p'
6.5,'d','p'
6.66,'d','p'
7.74,'d','p'
6.19,'d','p'
6.22,'d','p'
7.43,'d','p'
6.96,'d','p'
7.13,'d','p'
6.03,'d','p'
6.34,'d','p'
8,'d','p'
7.01,'d','p'
8.41,'d','p'
6.47,'d','p'
7.25,'d','p'
8.69,'d','p'
6.9,'d','p'
5.13,'d','p'
7.07,'d','p'
5.74,'d','p'
7.97,'d','p'
8.15,'d','p'
6.56,'d','p'
5.1,'d','p'
7.98,'d','p'
6.87,'d','p'
7.34,'d','p'
6.17,'d','p'
6.74,'d','p'
6.1,'d','p'
6.3,'d','p'
7.07,'d','p'
6.33,'d','p'
6.83,'d','p'
6.97,'d','p'
5.59,'d','p'
6.83,'d','p'
5.72,'d','p'
6.89,'d','p'
7.78,'d','p'
8.59,'d','p'
7.51,'d','p'
7.5,'d','p'
6.57,'d','p'
7.15,'d','p'
7.7,'d','p'
7.55,'d','p'
5.09,'d','p'
8.26,'d','p'
7.21,'d','p'
7.32,'d','p'
6.26,'d','p'
6.48,'d','p'
6.88,'d','p'
5.69,'d','p'
5.97,'d','p'
7.1,'d','p'
6.29,'d','p'
5.38,'d','p'
7.69,'d','p'
6.27,'d','p'
6.59,'d','p'
6.98,'d','p'
7.15,'d','p'
8.16,'d','p'
6,'d','p'
6.04,'d','p'
7.55,'d','p'
6.11,'d','p'
6.78,'d','p'
7.14,'d','p'
7.28,'d','p'
7.11,'d','p'
8.59,'d','p'
6.36,'d','p'
6.11,'d','p'
6.27,'d','p'
8.13,'d','p'
5.91,'d','p'
7.08,'d','p'
6.28,'d','p'
6.39,'d','p'
5.67,'d','p'
8.36,'d','p'
6.22,'d','p'
5.92,'d','p'
7.49,'d','p'
5.44,'d','p'
7.9,'d','p'
6.08,'d','p'
7.84,'d','p'
5.71,'d','p'
5.49,'d','p'
5.92,'d','p'
6.99,'d','p'
5.26,'d','p'
7.46,'d','p'
6.79,'d','p'
4.59,'d','p'
6.05,'d','p'
6.74,'d','p'
8.41,'d','p'
6.89,'d','p'
6.58,'d','p'
5.95,'d','p'
6.11,'d','p'
7.78,'d','p'
5.08,'d','p'
8.44,'d','p'
5.74,'d','p'
7.73,'d','p'
6.34,'d','p'
7.51,'d','p'
6.09,'d','p'
8.08,'d','p'
4.92,'d','p'
8.8,'d','p'
7.18,'d','p'
6.34,'d','p'
6.41,'d','p'
5.58,'d','p'
9.37,'d','p'
7.14,'d','p'
6.68,'d','p'
7.1,'d','p'
7.98,'d','p'
7.79,'d','p'
5.97,'d','p'
7.66,'d','p'
6.67,'d','p'
6.84,'d','p'
5.48,'d','e'
6.07,'d','e'
5.07,'d','e'
4.52,'d','e'
6.02,'d','e'
6.35,'d','e'
7.15,'d','e'
5.69,'d','e'
5.73,'d','e'
6.32,'d','e'
6.2,'d','e'
6.45,'d','e'
5.91,'d','e'
5.09,'d','e'
6.04,'d','e'
5.42,'d','e'
6.16,'d','e'
5.39,'d','e'
5.46,'d','e'
6.25,'d','e'
6.59,'d','e'
5.62,'d','e'
5.58,'d','e'
5.08,'d','e'
6.3,'d','e'
5.49,'d','e'
6.09,'d','e'
6.37,'d','e'
6.37,'d','e'
6.61,'d','e'
5.58,'d','e'
7.24,'d','e'
5.29,'d','e'
6.02,'d','e'
6.09,'d','e'
5.88,'d','e'
7.06,'d','e'
6.75,'d','e'
5.79,'d','e'
5.42,'d','e'
6.18,'d','e'
4.55,'d','e'
5.67,'d','e'
5.24,'d','e'
7.05,'d','e'
6.77,'d','e'
5.75,'d','e'
4.76,'d','e'
7.46,'d','e'
6.07,'d','e'
6.14,'d','e'
5.88,'d','e'
5.91,'d','e'
5.48,'d','e'
6.88,'d','e'
6.29,'d','e'
6.13,'d','e'
5.52,'d','e'
5.18,'d','e'
6.74,'d','e'
4.72,'d','e'
5.93,'d','e'
5.44,'d','e'
6.8,'d','e'
5.54,'d','e'
5.88,'d','e'
6.85,'d','e'
6.07,'d','e'
5.57,'d','e'
6.49,'d','e'
5.8,'d','e'
5.33,'d','e'
5.47,'d','e'
5.48,'d','e'
6.24,'d','e'
6.18,'d','e'
5.43,'d','e'
6.5,'d','e'
5.38,'d','e'
5.1,'d','e'
6.01,'d','e'
6.02,'d','e'
5.24,'d','e'
6.44,'d','e'
5.42,'d','e'
6.64,'d','e'
6.78,'d','e'
6.18,'d','e'
6.37,'d','e'
6.25,'d','e'
5.78,'d','e'
6.85,'d','e'
7.12,'d','e'
5.26,'d','e'
6.01,'d','e'
5.52,'d','e'
5.36,'d','e'
5.3,'d','e'
6.49,'d','e'
7.07,'d','e'
4.99,'d','e'
5.6,'d','e'
6.7,'d','e'
5.21,'d','e'
6.82,'d','e'
6.27,'d','e'
6.46,'d','e'
6.47,'d','e'
5.92,'d','e'
6.56,'d','e'
5.56,'d','e'
6.03,'d','e'
5.78,'d','e'
4.62,'d','e'
5.27,'d','e'
5.39,'d','e'
6.52,'d','e'
5.76,'d','e'
5.15,'d','e'
7.5,'d','e'
5.69,'d','e'
4.77,'d','e'
5.85,'d','e'
5.78,'d','e'
5.39,'d','e'
6.25,'d','e'
5.33,'d','e'
6.98,'d','e'
5.7,'d','e'
7.34,'d','e'
5.62,'d','e'
7.32,'d','e'
6.51,'d','e'
6.04,'d','e'
6.41,'d','e'
5.95,'d','e'
6.39,'d','e'
6.83,'d','e'
6.5,'d','e'
6.73,'d','e'
5.89,'d','e'
5.27,'d','e'
6.89,'d','e'
5.89,'d','e'
6.66,'d','e'
5.63,'d','e'
5.84,'d','e'
4.57,'d','e'
6.28,'d','e'
5.95,'d','e'
6.43,'d','e'
6.24,'d','e'
6.54,'d','e'
5.33,'d','e'
6.71,'d','e'
4.75,'d','e'
4.81,'d','e'
6.27,'d','e'
6.32,'d','e'
6.77,'d','e'
5.5,'d','e'
5.03,'d','e'
6.43,'d','e'
6.2,'d','e'
6.55,'d','e'
5.59,'d','e'
7,'d','e'
6.66,'d','e'
6.62,'d','e'
5.86,'d','e'
5.3,'d','e'
7.22,'d','e'
6.73,'d','e'
5.52,'d','e'
5.32,'d','e'
5.87,'d','e'
5.05,'d','e'
4.73,'d','e'
4.83,'d','e'
6.35,'d','e'
7,'d','e'
6.02,'d','e'
6.47,'d','e'
5.76,'d','e'
6.49,'d','e'
4.88,'d','e'
6.68,'d','e'
7.18,'d','e'
6.47,'d','e'
7.16,'d','e'
6.42,'d','e'
6.09,'d','e'
7.31,'d','e'
6.18,'d','e'
6.55,'d','e'
6.8,'d','e'
6.24,'d','e'
6.72,'d','e'
7.06,'d','e'
5.71,'d','e'
6.37,'d','e'
6.32,'d','e'
5.71,'d','e'
5.26,'d','e'
5.91,'d','e'
6.22,'d','e'
5.57,'d','e'
6.55,'d','e'
5.23,'d','e'
5.79,'d','e'
6.62,'d','e'
5.52,'d','e'
6.93,'d','e'
5.55,'d','e'
5.81,'d','e'
5.43,'d','e'
5.52,'d','e'
6.23,'d','e'
4.91,'d','e'
5.37,'d','e'
6.44,'d','e'
6.95,'d','e'
6.27,'d','e'
3.82,'d','e'
5.47,'d','e'
6.31,'d','e'
5.72,'d','e'
6.96,'d','e'
6.16,'d','e'
6.1,'d','e'
6.76,'d','e'
6.21,'d','e'
5.32,'d','e'
6.46,'d','e'
5.17,'d','e'
6.24,'d','e'
7.08,'d','e'
5.21,'d','e'
7.07,'d','e'
5.82,'d','e'
5.32,'d','e'
6.92,'d','e'
4.47,'d','e'
5.82,'d','e'
6.87,'d','e'
7.03,'d','e'
7.55,'d','e'
5.63,'d','e'
6.12,'d','e'
4.75,'d','e'
6.11,'d','e'
5.48,'d','e'
6.7,'d','e'
6.88,'d','e'
6.38,'d','e'
5.28,'d','e'
5.42,'d','e'
5.85,'d','e'
6.07,'d','e'
6.44,'d','e'
7.57,'d','e'
5.92,'d','e'
4.76,'d','e'
6.04,'d','e'
6.04,'d','e'
6.07,'d','e'
6.4,'d','e'
5.35,'d','e'
5.42,'d','e'
5.82,'d','e'
6.46,'d','e'
6.73,'d','e'
5.48,'d','e'
6.08,'d','e'
6.46,'d','e'
5.35,'d','e'
5.93,'d','e'
7.02,'d','e'
6.07,'d','e'
5.32,'d','e'
6.33,'d','e'
4.89,'d','e'
5.85,'d','e'
5.25,'d','e'
5.67,'d','e'
5.99,'d','e'
5.62,'d','e'
4.7,'d','e'
6.68,'d','e'
5.92,'d','e'
5.88,'d','e'
5.37,'d','e'
6.88,'d','e'
6.72,'d','e'
6.25,'d','e'
5.51,'d','e'
6.96,'d','e'
5.4,'d','e'
6.49,'d','e'
5.44,'d','e'
5.8,'d','e'
5.54,'d','e'
6.97,'d','e'
6.56,'d','e'
6.6,'d','e'
6.06,'d','e'
6.21,'d','e'
6.29,'d','e'
5.07,'d','e'
6.28,'d','e'
6.11,'d','e'
6.52,'d','e'
5.88,'d','e'
6.98,'d','e'
5.46,'d','e'
5.2,'d','e'
5.44,'d','e'
5.81,'d','e'
6.82,'d','e'
5.53,'d','e'
5.75,'d','e'
6,'d','e'
6.01,'d','e'
6.64,'d','e'
6.99,'d','e'
6.82,'d','e'
6.82,'d','e'
6.1,'d','e'
6.09,'d','e'
5.43,'d','e'
5.46,'d','e'
5.67,'d','e'
5.55,'d','e'
5.35,'d','e'
5.83,'d','e'
4.68,'d','e'
5.46,'d','e'
6.74,'d','e'
6.33,'d','e'
6.71,'d','e'
5.37,'d','e'
6.1,'d','e'
5.04,'d','e'
6.65,'d','e'
5.68,'d','e'
5.87,'d','e'
5.74,'d','e'
5.88,'d','e'
6.43,'d','e'
6.97,'d','e'
5.12,'d','e'
5.51,'d','e'
6.28,'d','e'
3.91,'d','e'
5.08,'d','e'
5.26,'d','e'
4.4,'d','e'
5.07,'d','e'
3.42,'d','e'
3.95,'d','e'
5.22,'d','e'
3.83,'d','e'
4.97,'d','e'
4.46,'d','e'
6.38,'d','e'
4.64,'d','e'
4.1,'d','e'
3.83,'d','e'
3.74,'d','e'
4.18,'d','e'
3.27,'d','e'
5.21,'d','e'
4.13,'d','e'
4.05,'d','e'
4.73,'d','e'
5.6,'d','e'
4.31,'d','e'
5.29,'d','e'
4.53,'d','e'
4.24,'d','e'
5.36,'d','e'
4.21,'d','e'
4.91,'d','e'
4.87,'d','e'
3.35,'d','e'
4.89,'d','e'
4.8,'d','e'
4.28,'d','e'
4.37,'d','e'
5.07,'d','e'
5.13,'d','e'
4.77,'d','e'
5.27,'d','e'
4.28,'d','e'
3.73,'d','e'
6.33,'d','e'
4.68,'d','e'
3.75,'d','e'
6.01,'d','e'
4.78,'d','e'
4.03,'d','e'
3.65,'d','e'
3.85,'d','e'
4.98,'d','e'
3.9,'d','e'
3.73,'d','e'
4.54,'d','e'
4.77,'d','e'
4.9,'d','e'
4.29,'d','e'
3.82,'d','e'
5.12,'d','e'
5.25,'d','e'
4.84,'d','e'
4.88,'d','e'
5.6,'d','e'
3.95,'d','e'
4.81,'d','e'
4.09,'d','e'
3.06,'d','e'
5,'d','e'
4.04,'d','e'
4.77,'d','e'
4.86,'d','e'
4.3,'d','e'
5.11,'d','e'
3.09,'d','e'
7.04,'d','e'
4.59,'d','e'
4.34,'d','e'
5.21,'d','e'
4.17,'d','e'
4.14,'d','e'
5.36,'d','e'
4.44,'d','e'
4.37,'d','e'
4.35,'d','e'
4.25,'d','e'
4.05,'d','e'
4.79,'d','e'
3.37,'d','e'
5.09,'d','e'
4.88,'d','e'
3.17,'d','e'
2.26,'d','e'
5.24,'d','e'
5.24,'d','e'
4.87,'d','e'
5.82,'d','e'
4.77,'d','e'
3.7,'d','e'
4.93,'d','e'
4.78,'d','e'
5.24,'d','e'
3.92,'d','e'
4.12,'d','e'
5.37,'d','e'
5.22,'d','e'
4.6,'d','e'
4.69,'d','e'
4.12,'d','e'
6.41,'d','e'
3.98,'d','e'
4.09,'d','e'
5.12,'d','e'
3.41,'d','e'
5.48,'d','e'
4.41,'d','e'
5.88,'d','e'
4.43,'d','e'
3.34,'d','e'
4.37,'d','e'
4.61,'d','e'
5.03,'d','e'
4.56,'d','e'
3.2,'d','e'
4.79,'d','e'
4.35,'d','e'
3.47,'d','e'
5.09,'d','e'
6.02,'d','e'
4.33,'d','e'
2.99,'d','e'
3.96,'d','e'
4.64,'d','e'
5.4,'d','e'
5.55,'d','e'
3.62,'d','e'
5.39,'d','e'
3.45,'d','e'
4.5,'d','e'
3.97,'d','e'
4.52,'d','e'
5.23,'d','e'
4.17,'d','e'
4.07,'d','e'
5.21,'d','e'
5.17,'d','e'
5.64,'d','e'
3.3,'d','e'
5.52,'d','e'
3.68,'d','e'
6.07,'d','e'
3.9,'d','e'
3.34,'d','e'
5.02,'d','e'
4.8,'d','e'
4.34,'d','e'
5.22,'d','e'
2.89,'d','e'
4.42,'d','e'
4.93,'d','e'
4.67,'d','e'
6.57,'d','e'
5.39,'d','e'
3.29,'d','e'
5.32,'d','e'
3.76,'d','e'
3.87,'d','e'
4.1,'d','e'
4.8,'d','e'
4.48,'d','e'
4.54,'d','e'
4.15,'d','e'
4.36,'d','e'
4.39,'d','e'
4.07,'d','e'
4.85,'d','e'
5.64,'d','e'
4.17,'d','e'
4.39,'d','e'
3.62,'d','e'
4.54,'d','e'
4.54,'d','e'
3.66,'d','e'
5.22,'d','e'
5.54,'d','e'
3.88,'d','e'
4.12,'d','e'
4.56,'d','e'
3.85,'d','e'
5.37,'d','e'
5.31,'d','e'
4.14,'d','e'
2.28,'d','e'
5.58,'d','e'
6.38,'d','e'
5.75,'d','e'
5.07,'d','e'
4.35,'d','e'
3.22,'d','e'
3.84,'d','e'
3.92,'d','e'
4.88,'d','e'
4.64,'d','e'
5.16,'d','e'
4.63,'d','e'
4.99,'d','e'
4.43,'d','e'
3.91,'d','e'
5.01,'d','e'
4.38,'d','e'
4.61,'d','e'
5.76,'d','e'
4.59,'d','e'
4.73,'d','e'
5.59,'d','e'
4.2,'d','e'
4.02,'d','e'
4.8,'d','e'
4.23,'d','e'
4.61,'d','e'
4,'d','e'
4.41,'d','e'
4.14,'d','e'
4.16,'d','e'
2.94,'d','e'
4.97,'d','e'
3.41,'d','e'
4.69,'d','e'
3.4,'d','e'
3.07,'d','e'
3.57,'d','e'
5.06,'d','e'
3.71,'d','e'
4.97,'d','e'
4.46,'d','e'
3.87,'d','e'
4.07,'d','e'
4.73,'d','e'
4.04,'d','e'
2.63,'d','e'
3.73,'d','e'
5,'d','e'
2.76,'d','e'
3.93,'d','e'
5,'d','e'
2.79,'d','e'
4.87,'d','e'
3.49,'d','e'
3.77,'d','e'
5.73,'d','e'
4.55,'d','e'
4.69,'d','e'
5.31,'d','e'
3.81,'d','e'
4.02,'d','e'
5.12,'d','e'
4.06,'d','e'
4.61,'d','e'
5.13,'d','e'
4.74,'d','e'
3.33,'d','e'
3.76,'d','e'
4.91,'d','e'
5.83,'d','e'
4.54,'d','e'
5.17,'d','e'
4.26,'d','e'
3.62,'d','e'
3.21,'d','e'
4.7,'d','e'
5.16,'d','e'
4,'d','e'
2.59,'d','e'
4.07,'d','e'
5.25,'d','e'
4.37,'d','e'
5.45,'d','e'
4.06,'d','e'
5.09,'d','e'
3.9,'d','e'
4.04,'d','e'
4.22,'d','e'
5,'d','e'
5,'d','e'
4,'d','e'
5.51,'d','e'
5.17,'d','e'
4.2,'d','e'
5.16,'d','e'
3.02,'d','e'
6.56,'d','e'
5.49,'d','e'
4.38,'d','e'
4.87,'d','e'
4.57,'d','e'
4.76,'d','e'
3.93,'d','e'
4.32,'d','e'
3.59,'d','e'
5.71,'d','e'
4.49,'d','e'
4.98,'d','e'
4.4,'d','e'
4.84,'d','e'
4.12,'d','e'
3.56,'d','e'
4.8,'d','e'
4.43,'d','e'
5.05,'d','e'
4.22,'d','e'
5.67,'d','e'
4.87,'d','e'
5.52,'d','e'
3.77,'d','e'
3.62,'d','e'
4.61,'d','e'
4.34,'d','e'
4.19,'d','e'
3.92,'d','e'
3.73,'d','e'
5.52,'d','e'
5.19,'d','e'
5.03,'d','e'
5.01,'d','e'
4.41,'d','e'
4.89,'d','e'
4.82,'d','e'
5.04,'d','e'
4.14,'d','e'
4.53,'d','e'
3.23,'d','e'
4.75,'d','e'
4.29,'d','e'
4.82,'d','e'
4.75,'d','e'
2.01,'d','e'
3.56,'d','e'
4.62,'d','e'
4.05,'d','e'
4.44,'d','e'
6.21,'d','e'
5.99,'d','e'
4.84,'d','e'
5.05,'d','e'
6.02,'d','e'
5.2,'d','e'
4.76,'d','e'
4.69,'d','e'
4.65,'d','e'
4.93,'d','e'
4.64,'d','e'
4.59,'d','e'
3.57,'d','e'
5.43,'d','e'
12.33,'d','e'
9.55,'d','e'
8.61,'d','e'
8.94,'d','e'
11.59,'d','e'
10.55,'d','e'
11.38,'d','e'
9.9,'d','e'
10.65,'d','e'
11.01,'d','e'
8,'d','e'
12.36,'d','e'
9.6,'d','e'
8.3,'d','e'
9.72,'d','e'
10.96,'d','e'
11.14,'d','e'
12.26,'d','e'
13.67,'d','e'
10.63,'d','e'
13.02,'d','e'
9.43,'d','e'
11.52,'d','e'
8.53,'d','e'
13.47,'d','e'
8.37,'d','e'
8.7,'d','e'
11.35,'d','e'
9.92,'d','e'
9.81,'d','e'
10.65,'d','e'
9.98,'d','e'
8.34,'d','e'
9.03,'d','e'
9.41,'d','e'
8.59,'d','e'
12.64,'d','e'
12.58,'d','e'
6.58,'d','e'
13.78,'d','e'
9.24,'d','e'
9.8,'d','e'
10.6,'d','e'
11.03,'d','e'
7.43,'d','e'
8.96,'d','e'
10.43,'d','e'
9.69,'d','e'
12.4,'d','e'
8.61,'d','e'
11.5,'d','e'
9.14,'d','e'
12.03,'d','e'
14.25,'d','e'
9.93,'d','e'
6.91,'d','e'
8.49,'d','e'
8.04,'d','e'
6.64,'d','e'
9.09,'d','e'
9.74,'d','e'
12.88,'d','e'
8.35,'d','e'
9.27,'d','e'
12.19,'d','e'
11.42,'d','e'
10.92,'d','e'
7.72,'d','e'
10.66,'d','e'
5.79,'d','e'
11.95,'d','e'
10.58,'d','e'
9.96,'d','e'
7.26,'d','e'
10.96,'d','e'
10.74,'d','e'
9.29,'d','e'
11.64,'d','e'
12.36,'d','e'
8.53,'d','e'
9.16,'d','e'
9.78,'d','e'
12.54,'d','e'
10.57,'d','e'
10.57,'d','e'
9.82,'d','e'
9.91,'d','e'
9.86,'d','e'
11.36,'d','e'
9.72,'d','e'
9.75,'d','e'
11.37,'d','e'
10.08,'d','e'
10.64,'d','e'
7.94,'d','e'
9.18,'d','e'
8.83,'d','e'
12.37,'d','e'
11.31,'d','e'
9.61,'d','e'
12.16,'d','e'
11.27,'d','e'
11.09,'d','e'
7.85,'d','e'
10.04,'d','e'
8.67,'d','e'
10.06,'d','e'
10.11,'d','e'
12.3,'d','e'
10.7,'d','e'
10.88,'d','e'
10.86,'d','e'
11.09,'d','e'
10.69,'d','e'
8.87,'d','e'
11.59,'d','e'
8.36,'d','e'
8.48,'d','e'
8.92,'d','e'
13.39,'d','e'
12.16,'d','e'
11.39,'d','e'
8.52,'d','e'
5.87,'d','e'
12.41,'d','e'
9.22,'d','e'
8.67,'d','e'
8.33,'d','e'
10.42,'d','e'
10.43,'d','e'
9.06,'d','e'
7.19,'d','e'
11.65,'d','e'
8.42,'d','e'
9.62,'d','e'
11.74,'d','e'
10.28,'d','e'
12.1,'d','e'
14.04,'d','e'
10.32,'d','e'
9.05,'d','e'
11.11,'d','e'
10.26,'d','e'
9.44,'d','e'
7.11,'d','e'
9.23,'d','e'
9.67,'d','e'
11.98,'d','e'
12.15,'d','e'
10.33,'d','e'
8.36,'d','e'
11.09,'d','e'
10.4,'d','e'
8.84,'d','e'
11.07,'d','e'
10.46,'d','e'
11.13,'d','e'
12.09,'d','e'
9.31,'d','e'
7.98,'d','e'
10,'d','e'
9.35,'d','e'
8.2,'d','e'
10.97,'d','e'
8.66,'d','e'
11.81,'d','e'
11.38,'d','e'
10.35,'d','e'
10.01,'d','e'
11.74,'d','e'
9.75,'d','e'
13.54,'d','e'
5.84,'d','e'
13.75,'d','e'
9.8,'d','e'
7.63,'d','e'
9.83,'d','e'
13.44,'d','e'
11.55,'d','e'
10.04,'d','e'
8.29,'d','e'
10.63,'d','e'
11.91,'d','e'
12.47,'d','e'
12.33,'d','e'
12.38,'d','e'
10.16,'d','e'
7.93,'d','e'
11.37,'d','e'
9.55,'d','e'
8.73,'d','e'
8.46,'d','e'
8.08,'d','e'
10.07,'d','e'
7.21,'d','e'
12.37,'d','e'
16.7,'d','e'
10.11,'d','e'
9.57,'d','e'
10.06,'d','e'
10.96,'d','e'
7.97,'d','e'
9.06,'d','e'
7.44,'d','e'
10.04,'d','e'
12.6,'d','e'
10.26,'d','e'
10.2,'d','e'
10.48,'d','e'
9.7,'d','e'
9.21,'d','e'
9.35,'d','e'
10.1,'d','e'
5.29,'d','e'
9.45,'d','e'
11.63,'d','e'
10.74,'d','e'
10.22,'d','e'
6.74,'d','e'
9.26,'d','e'
9.66,'d','e'
9.24,'d','e'
8.41,'d','e'
10.35,'d','e'
7.92,'d','e'
10.68,'d','e'
11.04,'d','e'
9.59,'d','e'
11.28,'d','e'
8.86,'d','e'
12.69,'d','e'
11.04,'d','e'
11.38,'d','e'
7.46,'d','e'
8.56,'d','e'
10.69,'d','e'
7.4,'d','e'
9.41,'d','e'
7.63,'d','e'
10.52,'d','e'
11.28,'d','e'
11.95,'d','e'
9.38,'d','e'
9.55,'d','e'
9.53,'d','e'
10.32,'d','e'
9.06,'d','e'
10.67,'d','e'
13.04,'d','e'
12.38,'d','e'
9.22,'d','e'
11.47,'d','e'
6.41,'d','e'
9.3,'d','e'
12.43,'d','e'
9.21,'d','e'
11.46,'d','e'
11.08,'d','e'
11.12,'d','e'
12.12,'d','e'
8.84,'d','e'
7.53,'d','e'
8.32,'d','e'
12.04,'d','e'
10.11,'d','e'
10.76,'d','e'
9.22,'d','e'
10.85,'d','e'
9.03,'d','e'
13.59,'d','e'
9.43,'d','e'
4.8,'d','e'
7.72,'d','e'
13.04,'d','e'
8.96,'d','e'
11.25,'d','e'
11.22,'d','e'
10.83,'d','e'
8.95,'d','e'
10.3,'d','e'
8.56,'d','e'
11.98,'d','e'
8.26,'d','e'
10.92,'d','e'
9.35,'d','e'
8.8,'d','e'
11.31,'d','e'
12.69,'d','e'
9.93,'d','e'
12.62,'d','e'
8.84,'d','e'
10.44,'d','e'
14.39,'d','e'
8.56,'d','e'
11.29,'d','e'
9.66,'d','e'
9.98,'d','e'
12.35,'d','e'
12.26,'d','e'
9.12,'d','e'
11.21,'d','e'
10.22,'d','e'
10.09,'d','e'
13.24,'d','e'
9.41,'d','e'
8,'d','e'
10.54,'d','e'
10.55,'d','e'
8.18,'d','e'
11.9,'d','e'
9.36,'d','e'
11.08,'d','e'
8.89,'d','e'
8.11,'d','e'
9.73,'d','e'
8.85,'d','e'
10.24,'d','e'
12.68,'d','e'
12.57,'d','e'
10.37,'d','e'
7.56,'d','e'
11.96,'d','e'
14.02,'d','e'
11.72,'d','e'
6.83,'d','e'
11.67,'d','e'
10.69,'d','e'
9.75,'d','e'
9.63,'d','e'
8.8,'d','e'
11.4,'d','e'
11.95,'d','e'
8.49,'d','e'
8.22,'d','e'
10.96,'d','e'
8.94,'d','e'
9.96,'d','e'
9.77,'d','e'
8.87,'d','e'
8.76,'d','e'
12.85,'d','e'
9.12,'d','e'
9.43,'d','e'
9.14,'d','e'
11.87,'d','e'
8.92,'d','e'
9.49,'d','e'
9.79,'d','e'
13.86,'d','e'
10.57,'d','e'
9.17,'d','e'
8.57,'d','e'
11.5,'d','e'
9.23,'d','e'
10.24,'d','e'
10.46,'d','e'
9.13,'d','e'
9.3,'d','e'
8.68,'d','e'
7.09,'d','e'
8.11,'d','e'
10.67,'d','e'
8.44,'d','e'
11.04,'d','e'
7.03,'d','e'
11.66,'d','e'
8.71,'d','e'
9.32,'d','e'
13.21,'d','e'
7.35,'d','e'
9.91,'d','e'
9.65,'d','e'
10.08,'d','e'
10.6,'d','e'
12.4,'d','e'
10.06,'d','e'
11.47,'d','e'
9.31,'d','e'
11.84,'d','e'
9.3,'d','e'
12.33,'d','e'
11.51,'d','e'
11.69,'d','e'
10.01,'d','e'
12.64,'d','e'
10,'d','e'
12.99,'d','e'
10.37,'d','e'
9.29,'d','e'
9.61,'d','e'
8.42,'d','e'
7.83,'d','e'
9.35,'d','e'
5.07,'d','e'
11.66,'d','e'
7.52,'d','e'
8.11,'d','e'
11.57,'d','e'
8.42,'d','e'
9.58,'d','e'
9.21,'d','e'
9.9,'d','e'
8.17,'d','e'
10.4,'d','e'
10.66,'d','e'
8.6,'d','e'
9.83,'d','e'
12.69,'d','e'
8.03,'d','e'
9.19,'d','e'
8.3,'d','e'
12.71,'d','e'
9.97,'d','e'
11.15,'d','e'
7.1,'d','e'
11.09,'d','e'
11.57,'d','e'
10.27,'d','e'
12.07,'d','e'
11.28,'d','e'
12.51,'d','e'
8.06,'d','e'
13.7,'d','e'
10.38,'d','e'
9.88,'d','e'
8.63,'d','e'
8.63,'d','e'
10.84,'d','e'
6.78,'d','e'
7.24,'d','e'
7.84,'d','e'
14.58,'d','e'
8.93,'d','e'
9.92,'d','e'
11.14,'d','e'
10.49,'d','e'
8.75,'d','e'
11.44,'d','e'
9.58,'d','e'
8.5,'d','e'
12.05,'d','e'
9.18,'d','e'
10.51,'d','e'
8.94,'d','e'
6.78,'d','e'
8.14,'d','e'
9.45,'d','e'
8.38,'d','e'
8.94,'d','e'
9.26,'d','e'
7.43,'d','e'
9.88,'d','e'
9.83,'d','e'
8.62,'d','e'
10.84,'d','e'
10.08,'d','e'
9.4,'d','e'
12.03,'d','e'
10.83,'d','e'
10.27,'d','e'
10.98,'d','e'
9.12,'d','e'
10.56,'d','e'
11.48,'d','e'
8.01,'d','e'
10.99,'d','e'
8.82,'d','e'
8.11,'d','e'
6.75,'d','e'
10.85,'d','e'
6.68,'d','e'
11.17,'d','e'
10,'d','e'
10.65,'d','e'
8.28,'d','e'
8.12,'d','e'
8.63,'d','e'
9.42,'d','e'
8.83,'d','e'
10.41,'d','e'
9.98,'d','e'
9.46,'d','e'
9.67,'d','e'
9.36,'d','e'
11.4,'d','e'
11.49,'d','e'
11.96,'d','e'
8.92,'d','e'
7.66,'d','e'
9.43,'d','e'
9.7,'d','e'
8.75,'d','e'
10.78,'d','e'
9.77,'d','e'
10.15,'d','e'
10.58,'d','e'
9.64,'d','e'
10.43,'d','e'
7.23,'d','e'
12.11,'d','e'
10.7,'d','e'
11.11,'d','e'
13.29,'d','e'
10.29,'d','e'
7.57,'d','e'
7.43,'d','e'
8.24,'d','e'
13.03,'d','e'
11.06,'d','e'
12.52,'d','e'
10.49,'d','e'
8.29,'d','e'
10.67,'d','e'
7.69,'d','e'
9.94,'d','e'
9.85,'d','e'
9.25,'d','e'
7.81,'d','e'
10.55,'d','e'
9.79,'d','e'
11.35,'d','e'
9.91,'d','e'
10.07,'d','e'
10.03,'d','e'
12.03,'d','e'
7.99,'d','e'
10.9,'d','e'
5.12,'d','e'
12.29,'d','e'
9.89,'d','e'
13.52,'d','e'
9.21,'d','e'
11.98,'d','e'
8.12,'d','e'
12.85,'d','e'
10.99,'d','e'
11.92,'d','e'
9.81,'d','e'
9.98,'d','e'
12.16,'d','e'
10.49,'d','e'
11.34,'d','e'
8.4,'d','e'
11.57,'d','e'
9.31,'d','e'
11.99,'d','e'
11.26,'d','e'
8.51,'d','e'
9.45,'d','e'
9.59,'d','e'
10.01,'d','e'
10.98,'d','e'
6.78,'d','e'
11.21,'d','e'
12.93,'d','e'
10.52,'d','e'
10.08,'d','e'
10.72,'d','e'
8.75,'d','e'
13.16,'d','e'
10.58,'d','e'
8.13,'d','e'
8.12,'d','e'
10.32,'d','e'
9.63,'d','e'
9.08,'d','e'
10.83,'d','e'
11.88,'d','e'
12.44,'d','e'
10.17,'d','e'
10.7,'d','e'
11.23,'d','e'
10.73,'d','e'
11.51,'d','e'
5.42,'d','e'
12.69,'d','e'
9.03,'d','e'
12.46,'d','e'
9.01,'d','e'
9.23,'d','e'
12,'d','e'
8.36,'d','e'
12.05,'d','e'
11.17,'d','e'
9.09,'d','e'
6.91,'d','e'
8.92,'d','e'
9.3,'d','e'
8.75,'d','e'
10.06,'d','e'
9.2,'d','e'
8.32,'d','e'
6.73,'d','e'
11.5,'d','e'
10.43,'d','e'
11.27,'d','e'
8.71,'d','e'
9.76,'d','e'
11.38,'d','e'
10.83,'d','e'
11.48,'d','e'
10.57,'d','e'
9.33,'d','e'
8.69,'d','e'
10.55,'d','e'
8.15,'d','e'
9.62,'d','e'
9.96,'d','e'
9.88,'d','e'
11.14,'d','e'
11.67,'d','e'
14.38,'d','e'
10.26,'d','e'
11.32,'d','e'
10.91,'d','e'
8.89,'d','e'
10.89,'d','e'
8.97,'d','e'
10.52,'d','e'
8.22,'d','e'
10.4,'d','e'
10.07,'d','e'
10.99,'d','e'
10.64,'d','e'
10.22,'d','e'
9.38,'d','e'
9.89,'d','e'
6.19,'d','e'
10.9,'d','e'
9.64,'d','e'
8.12,'d','e'
10,'d','e'
7.67,'d','e'
6.97,'d','e'
9.06,'d','e'
11.07,'d','e'
9.4,'d','e'
10.12,'d','e'
8.77,'d','e'
10.61,'d','e'
11.34,'d','e'
9.8,'d','e'
8.87,'d','e'
10.34,'d','e'
10.23,'d','e'
9.16,'d','e'
10.08,'d','e'
9.32,'d','e'
11.21,'d','e'
8.31,'d','e'
11.37,'d','e'
6.71,'d','e'
10.4,'d','e'
8.96,'d','e'
8.01,'d','e'
9.55,'d','e'
11.81,'d','e'
7.36,'d','e'
10.15,'d','e'
10.83,'d','e'
11.07,'d','e'
9.83,'d','e'
9.33,'d','e'
12.05,'d','e'
10.79,'d','e'
9.65,'d','e'
10.82,'d','e'
7.02,'d','e'
9,'d','e'
8.34,'d','e'
10.54,'d','e'
9.17,'d','e'
10.07,'d','e'
10.82,'d','e'
10.9,'d','e'
11.31,'d','e'
8.01,'d','e'
7.15,'d','e'
9.82,'d','e'
11.27,'d','e'
8.41,'d','e'
12.79,'d','e'
11.55,'d','e'
11.05,'d','e'
11.29,'d','e'
11.65,'d','e'
12.31,'d','e'
10.28,'d','e'
8.68,'d','e'
7.72,'d','e'
9.33,'d','e'
9.31,'d','e'
9.69,'d','e'
10.16,'d','e'
8.51,'d','e'
12.99,'d','e'
8.25,'d','e'
11.01,'d','e'
9.43,'d','e'
9.07,'d','e'
9.91,'d','e'
12.31,'d','e'
7.68,'d','e'
10.09,'d','e'
8.93,'d','e'
10.78,'d','e'
7.07,'d','p'
5.04,'d','p'
7.41,'d','p'
6.67,'d','p'
6.63,'d','p'
6.12,'d','p'
7.56,'d','p'
6.6,'d','p'
5.63,'d','p'
6.28,'d','p'
7.59,'d','p'
8.38,'d','p'
5.79,'d','p'
7.19,'d','p'
6.29,'d','p'
5.38,'d','p'
7.95,'d','p'
7.93,'d','p'
7.63,'d','p'
7.3,'d','p'
6.69,'d','p'
6.62,'d','p'
6.64,'d','p'
8.13,'d','p'
4.58,'d','p'
6.95,'d','p'
8.21,'d','p'
6.6,'d','p'
5.9,'d','p'
5.41,'d','p'
8.49,'d','p'
6.25,'d','p'
8.14,'d','p'
7.75,'d','p'
7.14,'d','p'
8.16,'d','p'
7.31,'d','p'
6.54,'d','p'
5.14,'d','p'
7.31,'d','p'
9.91,'d','p'
6.91,'d','p'
5.96,'d','p'
5.29,'d','p'
6.69,'d','p'
8.09,'d','p'
6.35,'d','p'
8.48,'d','p'
5.59,'d','p'
5.92,'d','p'
5.34,'d','p'
8.21,'d','p'
6.38,'d','p'
5.96,'d','p'
6.09,'d','p'
4.55,'d','p'
5.88,'d','p'
6.87,'d','p'
5,'d','p'
6.07,'d','p'
4.44,'d','p'
5.98,'d','p'
5.11,'d','p'
4.96,'d','p'
6.04,'d','p'
7.77,'d','p'
5.76,'d','p'
7.74,'d','p'
5.49,'d','p'
8.58,'d','p'
7.12,'d','p'
5.6,'d','p'
6.66,'d','p'
7.02,'d','p'
5.55,'d','p'
6.45,'d','p'
6.23,'d','p'
3.76,'d','p'
8.81,'d','p'
5.07,'d','p'
6.47,'d','p'
6.31,'d','p'
4.64,'d','p'
6.13,'d','p'
7.24,'d','p'
5.23,'d','p'
6.2,'d','p'
2.3,'d','p'
5.5,'d','p'
5.82,'d','p'
4.81,'d','p'
6.39,'d','p'
6.66,'d','p'
6.13,'d','p'
6.97,'d','p'
5.5,'d','p'
8.2,'d','p'
5.52,'d','p'
5.45,'d','p'
5.17,'d','p'
5.04,'d','p'
6.76,'d','p'
6.47,'d','p'
6.81,'d','p'
7.18,'d','p'
5.7,'d','p'
8.23,'d','p'
5.3,'d','p'
5.94,'d','p'
4.39,'d','p'
7.35,'d','p'
6.06,'d','p'
4.31,'d','p'
7.15,'d','p'
8.81,'d','p'
5.85,'d','p'
7.95,'d','p'
5.09,'d','p'
6.64,'d','p'
6.26,'d','p'
7.22,'d','p'
6.82,'d','p'
5.52,'d','p'
5.88,'d','p'
6.5,'d','p'
5.33,'d','p'
4.98,'d','p'
7.33,'d','p'
7.35,'d','p'
5.77,'d','p'
5.36,'d','p'
4.43,'d','p'
7.05,'d','p'
6.36,'d','p'
5.93,'d','p'
7.42,'d','p'
8.48,'d','p'
6.83,'d','p'
7.68,'d','p'
3.72,'d','p'
5.65,'d','p'
5.55,'d','p'
8.34,'d','p'
6.23,'d','p'
7.21,'d','p'
8.14,'d','p'
6.52,'d','p'
7.5,'d','p'
7.17,'d','p'
5.84,'d','p'
7.5,'d','p'
6.11,'d','p'
6.04,'d','p'
4.66,'d','p'
6.9,'d','p'
7.91,'d','p'
7.25,'d','p'
8.42,'d','p'
6.32,'d','p'
5.97,'d','p'
6.32,'d','p'
6.25,'d','p'
5.93,'d','p'
6.57,'d','p'
5.53,'d','p'
6.94,'d','p'
6.36,'d','p'
6.52,'d','p'
5.84,'d','p'
6.87,'d','p'
6.57,'d','p'
7.27,'d','p'
5.45,'d','p'
5.53,'d','p'
5.86,'d','p'
7.71,'d','p'
5.56,'d','p'
6.93,'d','p'
7.64,'d','p'
6.98,'d','p'
4.88,'d','p'
6.72,'d','p'
7.8,'d','p'
6.93,'d','p'
6.29,'d','p'
7.64,'d','p'
6.25,'d','p'
5.44,'d','p'
6.07,'d','p'
6.94,'d','p'
7.34,'d','p'
3.75,'d','p'
5.88,'d','p'
6.77,'d','p'
5.8,'d','p'
6.3,'d','p'
9.03,'d','p'
7.55,'d','p'
4.96,'d','p'
5.92,'d','p'
4.01,'d','p'
7.33,'d','p'
6.31,'d','p'
5.45,'d','p'
8,'d','p'
10.35,'d','p'
7.91,'d','p'
5.87,'d','p'
5.94,'d','p'
8.36,'d','p'
7.56,'d','p'
6.76,'d','p'
6.56,'d','p'
6.08,'d','p'
5.72,'d','p'
5.86,'d','p'
4.78,'d','p'
5.66,'d','p'
6.86,'d','p'
5.9,'d','p'
6.4,'d','p'
6.72,'d','p'
6.02,'d','p'
4.67,'d','p'
5.09,'d','p'
5.94,'d','p'
6.84,'d','p'
7.97,'d','p'
6.25,'d','p'
6.49,'d','p'
7.25,'d','p'
3.3,'d','p'
6.25,'d','p'
7.31,'d','p'
5.18,'d','p'
8.89,'d','p'
5.2,'d','p'
5.56,'d','p'
3.95,'d','p'
8.58,'d','p'
7.98,'d','p'
6.69,'d','p'
4.02,'d','p'
7.16,'d','p'
6.41,'d','p'
5.12,'d','p'
5.7,'d','p'
6.42,'d','p'
4.85,'d','p'
6.96,'d','p'
5.77,'d','p'
6.19,'d','p'
6.61,'d','p'
5.32,'d','p'
6.81,'d','p'
8.06,'d','p'
7.34,'d','p'
6.52,'d','p'
6.51,'d','p'
7.25,'d','p'
9.03,'d','p'
7.3,'d','p'
7.53,'d','p'
6.78,'d','p'
5.74,'d','p'
5.42,'d','p'
4.81,'d','p'
7.88,'d','p'
7.68,'d','p'
5.59,'d','p'
9.63,'d','p'
6.59,'d','p'
7.88,'d','p'
6.99,'d','p'
6.68,'d','p'
6.64,'d','p'
5.53,'d','p'
6.44,'d','p'
6.53,'d','p'
5.17,'d','p'
6.12,'d','p'
6.25,'d','p'
8.02,'d','p'
6.26,'d','p'
6.21,'d','p'
7.92,'d','p'
4.96,'d','p'
6.87,'d','p'
7.56,'d','p'
5.03,'d','p'
6.35,'d','p'
5.69,'d','p'
6.98,'d','p'
5.66,'d','p'
5.75,'d','p'
8.65,'d','p'
6.52,'d','p'
8.13,'d','p'
6.21,'d','p'
8.9,'d','p'
3.74,'d','p'
5.13,'d','p'
8.4,'d','p'
5.47,'d','p'
6.33,'d','p'
9.37,'d','p'
6.76,'d','p'
4.72,'d','p'
3.67,'d','p'
5.57,'d','p'
6.46,'d','p'
6.68,'d','p'
5.82,'d','p'
6.91,'d','p'
8.13,'d','p'
6.75,'d','p'
5.58,'d','p'
6.18,'d','p'
5.77,'d','p'
5.77,'d','p'
6.91,'d','p'
6.35,'d','p'
7.08,'d','p'
6.95,'d','p'
7.29,'d','p'
7.25,'d','p'
9.16,'d','p'
5.92,'d','p'
7,'d','p'
6.5,'d','p'
8.39,'d','p'
8.04,'d','p'
5.46,'d','p'
8.52,'d','p'
6.1,'d','p'
4.44,'d','p'
7.73,'d','p'
6.12,'d','p'
4.11,'d','p'
4.94,'d','p'
6.61,'d','p'
4.2,'d','p'
7.23,'d','p'
4.34,'d','p'
7.2,'d','p'
7.1,'d','p'
6.31,'d','p'
6.86,'d','p'
6.73,'d','p'
6.83,'d','p'
6.43,'d','p'
5.53,'d','p'
6.38,'d','p'
6.21,'d','e'
5.77,'d','e'
5.45,'d','e'
5,'d','e'
6.97,'d','e'
6.89,'d','e'
6.3,'d','e'
6.26,'d','e'
4.79,'d','e'
5.55,'d','e'
6.77,'d','e'
5.38,'d','e'
5.76,'d','e'
5.55,'d','e'
6.21,'d','e'
6.92,'d','e'
5.57,'d','e'
6.57,'d','e'
6.5,'d','e'
7.61,'d','e'
5.79,'d','e'
7.62,'d','e'
5.3,'d','e'
5.92,'d','e'
5.62,'d','e'
6.39,'d','e'
6.3,'d','e'
4.73,'d','e'
5.96,'d','e'
5.37,'d','e'
5.63,'d','e'
5.67,'d','e'
5.43,'d','e'
4.32,'d','e'
6.12,'d','e'
6.89,'d','e'
4.95,'d','e'
7.66,'d','e'
5.29,'d','e'
5.6,'d','e'
5.71,'d','e'
5.01,'d','e'
5.63,'d','e'
6.19,'d','e'
6.03,'d','e'
7.01,'d','e'
5.05,'d','e'
6.68,'d','e'
5.18,'d','e'
6.25,'d','e'
6.52,'d','e'
6.71,'d','e'
5.62,'d','e'
6.38,'d','e'
5.53,'d','e'
4.93,'d','e'
4.7,'d','e'
5.64,'d','e'
5.71,'d','e'
6.74,'d','e'
6.46,'d','e'
5.02,'d','e'
6.95,'d','e'
5.94,'d','e'
5.12,'d','e'
6.95,'d','e'
5.84,'d','e'
6.24,'d','e'
6.04,'d','e'
6.24,'d','e'
6.44,'d','e'
5.49,'d','e'
6.02,'d','e'
6.48,'d','e'
4.81,'d','e'
5.64,'d','e'
5.55,'d','e'
5.58,'d','e'
4.11,'d','e'
6.8,'d','e'
5.62,'d','e'
6.61,'d','e'
5.05,'d','e'
4.38,'d','e'
6.66,'d','e'
5.47,'d','e'
5.56,'d','e'
4.67,'d','e'
4.76,'d','e'
6.55,'d','e'
5.78,'d','e'
5.25,'d','e'
6.39,'d','e'
6.36,'d','e'
5.33,'d','e'
5.97,'d','e'
6.5,'d','e'
6.38,'d','e'
6.88,'d','e'
6.1,'d','e'
7.16,'d','e'
5.36,'d','e'
6.19,'d','e'
6.27,'d','e'
6.53,'d','e'
5.57,'d','e'
5.11,'d','e'
7.27,'d','e'
7.21,'d','e'
7.06,'d','e'
6.86,'d','e'
6.59,'d','e'
5.91,'d','e'
6.85,'d','e'
5.59,'d','e'
6.83,'d','e'
5.76,'d','e'
6.95,'d','e'
6.88,'d','e'
6.67,'d','e'
5.82,'d','e'
5.49,'d','e'
5.39,'d','e'
5.03,'d','e'
5.97,'d','e'
6.34,'d','e'
6.02,'d','e'
6.1,'d','e'
6.43,'d','e'
5.26,'d','e'
5.31,'d','e'
6.87,'d','e'
6.01,'d','e'
6.21,'d','e'
6.57,'d','e'
6.07,'d','e'
6.97,'d','e'
6.43,'d','e'
5.54,'d','e'
6.38,'d','e'
6.42,'d','e'
5.9,'d','e'
6.08,'d','e'
5.28,'d','e'
5.82,'d','e'
4.93,'d','e'
6.02,'d','e'
5.14,'d','e'
5.26,'d','e'
5.89,'d','e'
5.91,'d','e'
6.63,'d','e'
4.45,'d','e'
5.99,'d','e'
6.73,'d','e'
4.89,'d','e'
5.66,'d','e'
5.48,'d','e'
6.05,'d','e'
6.18,'d','e'
5.82,'d','e'
5.35,'d','e'
7.48,'d','e'
5.69,'d','e'
6.5,'d','e'
5.55,'d','e'
6.5,'d','e'
5.32,'d','e'
5.48,'d','e'
6.91,'d','e'
5.2,'d','e'
5.15,'d','e'
5.95,'d','e'
4.87,'d','e'
5.72,'d','e'
5.29,'d','e'
5.86,'d','e'
4.91,'d','e'
6.81,'d','e'
6.45,'d','e'
6.73,'d','e'
5.73,'d','e'
6.34,'d','e'
6.46,'d','e'
5.69,'d','e'
5.17,'d','e'
6.33,'d','e'
6.14,'d','e'
6.25,'d','e'
6.76,'d','e'
5.21,'d','e'
6,'d','e'
7.45,'d','e'
6.56,'d','e'
4.73,'d','e'
7.27,'d','e'
6.94,'d','e'
7.01,'d','e'
6.35,'d','e'
6.06,'d','e'
6.04,'d','e'
5.99,'d','e'
6.68,'d','e'
5.98,'d','e'
5.67,'d','e'
6.22,'d','e'
6.05,'d','e'
5.77,'d','e'
5.13,'d','e'
5.05,'d','e'
7.07,'d','e'
5.76,'d','e'
7.08,'d','e'
5.4,'d','e'
5.25,'d','e'
5.89,'d','e'
5.74,'d','e'
5,'d','e'
5.6,'d','e'
6.14,'d','e'
6.4,'d','e'
6,'d','e'
4.59,'d','e'
6.28,'d','e'
5.48,'d','e'
6.54,'d','e'
6.02,'d','e'
4.89,'d','e'
5.65,'d','e'
6.49,'d','e'
7.49,'d','e'
5.81,'d','e'
6.12,'d','e'
5.69,'d','e'
5.09,'d','e'
7.31,'d','e'
6.35,'d','e'
8.1,'d','e'
5.87,'d','e'
6.4,'d','e'
6.66,'d','e'
6.07,'d','e'
5.6,'d','e'
4.64,'d','e'
5.73,'d','e'
4.58,'d','e'
6.57,'d','e'
5.53,'d','e'
6.05,'d','e'
5.85,'d','e'
5.66,'d','e'
6.17,'d','e'
6.24,'d','e'
4.88,'d','e'
4.7,'d','e'
6.63,'d','e'
5.6,'d','e'
5.48,'d','e'
6.17,'d','e'
6.48,'d','e'
5.85,'d','e'
5.91,'d','e'
5.75,'d','e'
5.99,'d','e'
6.69,'d','e'
6.29,'d','e'
4.95,'d','e'
6.08,'d','e'
6.29,'d','e'
6.75,'d','e'
4.96,'d','e'
7.03,'d','e'
6.6,'d','e'
5.9,'d','e'
7.21,'d','e'
6.57,'d','e'
6.89,'d','e'
5.03,'d','e'
5.32,'d','e'
6.03,'d','e'
6.74,'d','e'
6.54,'d','e'
5.88,'d','e'
6.7,'d','e'
6.4,'d','e'
6.42,'d','e'
6.53,'d','e'
6.62,'d','e'
5.03,'d','e'
5.28,'d','e'
6.58,'d','e'
6.46,'d','e'
5.47,'d','e'
5.11,'d','e'
6.18,'d','e'
5.72,'d','e'
5.64,'d','e'
5.62,'d','e'
7.3,'d','e'
5.6,'d','e'
5.57,'d','e'
5.79,'d','e'
7.08,'d','e'
5.04,'d','e'
7.03,'d','e'
5.79,'d','e'
6.9,'d','e'
4.85,'d','e'
6.02,'d','e'
5.65,'d','e'
7.47,'d','e'
5.62,'d','e'
6.24,'d','e'
5.52,'d','e'
7.17,'d','e'
5.97,'d','e'
5.86,'d','e'
6.21,'d','e'
6.51,'d','e'
6.21,'d','e'
5.17,'d','e'
6.92,'d','e'
6.14,'d','e'
6.38,'d','e'
5.61,'d','e'
5.22,'d','e'
5.34,'d','e'
5.55,'d','e'
5.61,'d','e'
5.91,'d','e'
6,'d','e'
6.16,'d','e'
5.53,'d','e'
4.92,'d','e'
5.54,'d','e'
6.37,'d','e'
5.77,'d','e'
5.84,'d','e'
6.49,'d','e'
6.07,'d','e'
5.66,'d','e'
5.93,'d','e'
7.09,'d','e'
6.24,'d','e'
7.22,'d','e'
5.95,'d','e'
5.33,'d','e'
6.59,'d','e'
6.13,'d','e'
5.69,'d','e'
5.97,'d','e'
6.01,'d','e'
4.84,'d','e'
3.83,'d','e'
4.57,'d','e'
4.62,'d','e'
4.02,'d','e'
4.84,'d','e'
4.8,'d','e'
5.27,'d','e'
4.87,'d','e'
4.7,'d','e'
5.3,'d','e'
5.37,'d','e'
5.36,'d','e'
5.87,'d','e'
4.42,'d','e'
5.21,'d','e'
4.54,'d','e'
6.02,'d','e'
5.3,'d','e'
6.03,'d','e'
4.26,'d','e'
4.69,'d','e'
6.29,'d','e'
5.82,'d','e'
4.31,'d','e'
5.41,'d','e'
5.06,'d','e'
4.86,'d','e'
4.96,'d','e'
5.29,'d','e'
5.33,'d','e'
4.94,'d','e'
4.74,'d','e'
5.19,'d','e'
5.6,'d','e'
4.32,'d','e'
5.49,'d','e'
5.06,'d','e'
5.01,'d','e'
4.66,'d','e'
6.45,'d','e'
5.58,'d','e'
5.36,'d','e'
4.25,'d','e'
4.17,'d','e'
4.08,'d','e'
4.93,'d','e'
4.78,'d','e'
5.32,'d','e'
4.88,'d','e'
4.56,'d','e'
6.43,'d','e'
4.7,'d','e'
5.76,'d','e'
4.16,'d','e'
5.63,'d','e'
4.99,'d','e'
5.35,'d','e'
3.89,'d','e'
5.37,'d','e'
3.34,'d','e'
4.74,'d','e'
4.48,'d','e'
4.61,'d','e'
5.31,'d','e'
5.52,'d','e'
3.9,'d','e'
4.79,'d','e'
5.59,'d','e'
4.6,'d','e'
5.54,'d','e'
5.5,'d','e'
5.54,'d','e'
4.18,'d','e'
4.86,'d','e'
5.49,'d','e'
5.05,'d','e'
4.2,'d','e'
5.05,'d','e'
4.98,'d','e'
5.62,'d','e'
5.42,'d','e'
5.09,'d','e'
5.79,'d','e'
5.76,'d','e'
4.77,'d','e'
5.6,'d','e'
3.73,'d','e'
4.66,'d','e'
4.25,'d','e'
5.28,'d','e'
5.51,'d','e'
5.77,'d','e'
4.8,'d','e'
4.7,'d','e'
4.75,'d','e'
4.17,'d','e'
6.35,'d','e'
4.25,'d','e'
4.59,'d','e'
5.07,'d','e'
3.97,'d','e'
4.73,'d','e'
5.15,'d','e'
4.2,'d','e'
5.64,'d','e'
6.12,'d','e'
5.65,'d','e'
5.69,'d','e'
5.41,'d','e'
5.42,'d','e'
4.46,'d','e'
5.84,'d','e'
4.62,'d','e'
4.46,'d','e'
5.97,'d','e'
5.67,'d','e'
4.94,'d','e'
5.18,'d','e'
3.28,'d','e'
4.75,'d','e'
4.88,'d','e'
5.12,'d','e'
5.79,'d','e'
4.59,'d','e'
5.11,'d','e'
4.43,'d','e'
5.26,'d','e'
5.27,'d','e'
5.5,'d','e'
4.68,'d','e'
6.4,'d','e'
6.09,'d','e'
6.06,'d','e'
4.52,'d','e'
4.34,'d','e'
4.58,'d','e'
5.33,'d','e'
4.16,'d','e'
4.73,'d','e'
6.44,'d','e'
4.89,'d','e'
4.63,'d','e'
4.57,'d','e'
5.67,'d','e'
4.94,'d','e'
4.44,'d','e'
4.93,'d','e'
4.37,'d','e'
3.97,'d','e'
4.57,'d','e'
5.33,'d','e'
5.24,'d','e'
4.7,'d','e'
5.01,'d','e'
5.58,'d','e'
5.66,'d','e'
4.37,'d','e'
4.71,'d','e'
5.68,'d','e'
4.78,'d','e'
4.29,'d','e'
3.61,'d','e'
5.68,'d','e'
4.97,'d','e'
4.89,'d','e'
4.32,'d','e'
4.77,'d','e'
5.47,'d','e'
5.64,'d','e'
5.32,'d','e'
4.75,'d','e'
4.44,'d','e'
4.85,'d','e'
5.8,'d','e'
5.21,'d','e'
5.09,'d','e'
5.18,'d','e'
4.3,'d','e'
5.31,'d','e'
4.9,'d','e'
5.6,'d','e'
5.09,'d','e'
4.1,'d','e'
5.75,'d','e'
5.03,'d','e'
6.5,'d','e'
4.91,'d','e'
5.43,'d','e'
4.17,'d','e'
5.76,'d','e'
5.98,'d','e'
5.08,'d','e'
4.87,'d','e'
3.94,'d','e'
4.82,'d','e'
5,'d','e'
5.88,'d','e'
5.58,'d','e'
4.98,'d','e'
4.8,'d','e'
4.62,'d','e'
5.97,'d','e'
5.06,'d','e'
4.44,'d','e'
4.36,'d','e'
4.96,'d','e'
4.93,'d','e'
5.46,'d','e'
3.78,'d','e'
4.89,'d','e'
6.25,'d','e'
5.49,'d','e'
4.85,'d','e'
5.27,'d','e'
3.15,'d','e'
5.45,'d','e'
4.46,'d','e'
5.27,'d','e'
3.52,'d','e'
4.5,'d','e'
6.03,'d','e'
4.22,'d','e'
5.2,'d','e'
5.44,'d','e'
4.19,'d','e'
4.23,'d','e'
5.55,'d','e'
4.35,'d','e'
5.37,'d','e'
4.96,'d','e'
5.46,'d','e'
5.04,'d','e'
4.48,'d','e'
4.48,'d','e'
5.51,'d','e'
5.21,'d','e'
4.45,'d','e'
5.62,'d','e'
5.51,'d','e'
3.88,'d','e'
4.95,'d','e'
4.77,'d','e'
5.49,'d','e'
4.33,'d','e'
5.01,'d','e'
5.97,'d','e'
4.57,'d','e'
5.03,'d','e'
4.69,'d','e'
5.09,'d','e'
4.39,'d','e'
4.17,'d','e'
4.25,'d','e'
4.72,'d','e'
4.84,'d','e'
3.77,'d','e'
5.09,'d','e'
5.2,'d','e'
5,'d','e'
3.85,'d','e'
4.88,'d','e'
3.95,'d','e'
4.6,'d','e'
5.09,'d','e'
4.55,'d','e'
5.43,'d','e'
5.35,'d','e'
4.41,'d','e'
5.35,'d','e'
4.12,'d','e'
5.73,'d','e'
5.16,'d','e'
4.72,'d','e'
5.69,'d','e'
5.33,'d','e'
4.35,'d','e'
5.51,'d','e'
5.15,'d','e'
5.63,'d','e'
4.54,'d','e'
4.97,'d','e'
6.53,'d','e'
5.66,'d','e'
5.15,'d','e'
4.3,'d','e'
5.15,'d','e'
6.17,'d','e'
5.32,'d','e'
4.89,'d','e'
5.44,'d','e'
4.02,'d','e'
4.71,'d','e'
5.27,'d','e'
6.01,'d','e'
6.06,'d','e'
4.66,'d','e'
5.86,'d','e'
4.48,'d','e'
5.71,'d','e'
5.05,'d','e'
3.63,'d','e'
4.57,'d','e'
4.47,'d','e'
5.31,'d','e'
4.47,'d','e'
5.48,'d','e'
6,'d','e'
5.44,'d','e'
4.62,'d','e'
3.78,'d','e'
4.68,'d','e'
4.65,'d','e'
4.79,'d','e'
5.11,'d','e'
5.56,'d','e'
5.42,'d','e'
4.89,'d','e'
3.14,'d','e'
4.49,'d','e'
5.08,'d','e'
5.08,'d','e'
5.35,'d','e'
4.51,'d','e'
4.15,'d','e'
5,'d','e'
4.53,'d','e'
4.15,'d','e'
4.97,'d','e'
5.41,'d','e'
5.47,'d','e'
5.37,'d','e'
4.48,'d','e'
4.61,'d','e'
4.11,'d','e'
5.69,'d','e'
3.99,'d','e'
5.88,'d','e'
5.79,'d','e'
5.88,'d','e'
3.99,'d','e'
5.59,'d','e'
5.04,'d','e'
3.87,'d','e'
3.76,'d','e'
4.88,'d','e'
5.5,'d','e'
4.33,'d','e'
4.12,'d','e'
4.65,'d','e'
5.47,'d','e'
5.48,'d','e'
4.66,'d','e'
6.31,'d','e'
8.52,'d','e'
7.63,'d','e'
8.07,'d','e'
6.96,'d','e'
7.62,'d','e'
7.9,'d','e'
6.61,'d','e'
8,'d','e'
6.47,'d','e'
6.59,'d','e'
7.9,'d','e'
7.35,'d','e'
8.63,'d','e'
8.52,'d','e'
7.4,'d','e'
7.15,'d','e'
8.95,'d','e'
6.54,'d','e'
7.98,'d','e'
5.93,'d','e'
8.67,'d','e'
8.24,'d','e'
7.69,'d','e'
7.46,'d','e'
7.93,'d','e'
7.14,'d','e'
7.75,'d','e'
7.28,'d','e'
8,'d','e'
7.06,'d','e'
7.87,'d','e'
7.66,'d','e'
6.48,'d','e'
8.07,'d','e'
6.87,'d','e'
8.84,'d','e'
6.6,'d','e'
7.06,'d','e'
6.2,'d','e'
7.25,'d','e'
6.53,'d','e'
7.76,'d','e'
6.83,'d','e'
8.71,'d','e'
8.51,'d','e'
9.44,'d','e'
8.35,'d','e'
6.53,'d','e'
7.05,'d','e'
7.09,'d','e'
7.68,'d','e'
8.53,'d','e'
7.5,'d','e'
8.37,'d','e'
6.79,'d','e'
8.8,'d','e'
7.12,'d','e'
8.54,'d','e'
6.08,'d','e'
7.23,'d','e'
8.22,'d','e'
6.98,'d','e'
7.72,'d','e'
7.43,'d','e'
6.73,'d','e'
7.56,'d','e'
7.76,'d','e'
7.67,'d','e'
5.84,'d','e'
7.45,'d','e'
7.25,'d','e'
6.78,'d','e'
7.64,'d','e'
5.98,'d','e'
7.36,'d','e'
6.79,'d','e'
6.51,'d','e'
7.57,'d','e'
6.95,'d','e'
8.8,'d','e'
6.91,'d','e'
7.33,'d','e'
7.03,'d','e'
5.9,'d','e'
8.24,'d','e'
6.07,'d','e'
7.51,'d','e'
8.34,'d','e'
8.6,'d','e'
7.87,'d','e'
8.73,'d','e'
6.23,'d','e'
8.7,'d','e'
7.79,'d','e'
5.52,'d','e'
7.41,'d','e'
8.09,'d','e'
6.51,'d','e'
7.8,'d','e'
8.18,'d','e'
7.12,'d','e'
6.94,'d','e'
7.48,'d','e'
9.38,'d','e'
7.74,'d','e'
8.26,'d','e'
6.51,'d','e'
5.65,'d','e'
8.96,'d','e'
7.19,'d','e'
7.56,'d','e'
6.76,'d','e'
8.23,'d','e'
7.16,'d','e'
7.29,'d','e'
7.37,'d','e'
7.84,'d','e'
7.42,'d','e'
7.38,'d','e'
7.86,'d','e'
8.36,'d','e'
7.97,'d','e'
6.71,'d','e'
7.49,'d','e'
8.56,'d','e'
8.82,'d','e'
8.69,'d','e'
8.16,'d','e'
6.59,'d','e'
6.93,'d','e'
7.23,'d','e'
7.72,'d','e'
7.14,'d','e'
6.1,'d','e'
7.49,'d','e'
8.08,'d','e'
7.21,'d','e'
8.35,'d','e'
6.92,'d','e'
7.43,'d','e'
9.77,'d','e'
7.97,'d','e'
8.33,'d','e'
7.64,'d','e'
6.11,'d','e'
7.5,'d','e'
6.87,'d','e'
8.04,'d','e'
7.4,'d','e'
8.39,'d','e'
7.61,'d','e'
7.74,'d','e'
6.91,'d','e'
6.84,'d','e'
8.3,'d','e'
7.4,'d','e'
8.52,'d','e'
8.12,'d','e'
8.56,'d','e'
7.5,'d','e'
7.4,'d','e'
7.81,'d','e'
6.89,'d','e'
7.39,'d','e'
6.46,'d','e'
7.73,'d','e'
8.03,'d','e'
7.36,'d','e'
8.23,'d','e'
8.21,'d','e'
7.01,'d','e'
7.08,'d','e'
7.06,'d','e'
7.8,'d','e'
8.13,'d','e'
6.42,'d','e'
7.15,'d','e'
7.85,'d','e'
6.82,'d','e'
6.43,'d','e'
8.05,'d','e'
7.95,'d','e'
7.93,'d','e'
7.95,'d','e'
6.45,'d','e'
8.24,'d','e'
7.6,'d','e'
7.67,'d','e'
8.66,'d','e'
7.54,'d','e'
7.58,'d','e'
6.57,'d','e'
6.98,'d','e'
6.93,'d','e'
7.52,'d','e'
6.74,'d','e'
8.07,'d','e'
7.21,'d','e'
7.6,'d','e'
7.85,'d','e'
6.44,'d','e'
7.04,'d','e'
6.06,'d','e'
8.09,'d','e'
7.47,'d','e'
7.42,'d','e'
7.6,'d','e'
6.51,'d','e'
8.39,'d','e'
7.48,'d','e'
6.46,'d','e'
9.2,'d','e'
8.22,'d','e'
7.83,'d','e'
7.37,'d','e'
7.61,'d','e'
7.18,'d','e'
8.11,'d','e'
7.51,'d','e'
7.04,'d','e'
6.45,'d','e'
7.03,'d','e'
6.81,'d','e'
9.13,'d','e'
7.71,'d','e'
8.98,'d','e'
8.73,'d','e'
7.93,'d','e'
7.35,'d','e'
8.36,'d','e'
7.17,'d','e'
7.82,'d','e'
6.24,'d','e'
6.9,'d','e'
8.34,'d','e'
8.22,'d','e'
7.87,'d','e'
7.59,'d','e'
7.88,'d','e'
7,'d','e'
8.01,'d','e'
7.35,'d','e'
6.53,'d','e'
7.41,'d','e'
8.9,'d','e'
8.08,'d','e'
7.55,'d','e'
9.2,'d','e'
7.27,'d','e'
8.02,'d','e'
7.48,'d','e'
7.6,'d','e'
7.97,'d','e'
9.03,'d','e'
8.48,'d','e'
7.75,'d','e'
6.37,'d','e'
7.54,'d','e'
7.51,'d','e'
8.65,'d','e'
7.26,'d','e'
6.49,'d','e'
8.38,'d','e'
8.23,'d','e'
6.64,'d','e'
8.67,'d','e'
7.05,'d','e'
8.05,'d','e'
8.53,'d','e'
8.65,'d','e'
7.99,'d','e'
6.92,'d','e'
7.88,'d','e'
8,'d','e'
8.17,'d','e'
6.55,'d','e'
8.52,'d','e'
6.41,'d','e'
7.19,'d','e'
7.85,'d','e'
7.18,'d','e'
7.98,'d','e'
8.14,'d','e'
7.03,'d','e'
8.41,'d','e'
7.85,'d','e'
6.7,'d','e'
7.8,'d','e'
8.31,'d','e'
7.15,'d','e'
7.74,'d','e'
6.78,'d','e'
7.34,'d','e'
7.55,'d','e'
5.62,'d','e'
8.42,'d','e'
7.05,'d','e'
6.8,'d','e'
8.54,'d','e'
6.64,'d','e'
4.61,'d','e'
7.57,'d','e'
7.23,'d','e'
9.01,'d','e'
7.37,'d','e'
7,'d','e'
7.28,'d','e'
7.79,'d','e'
8.22,'d','e'
6.92,'d','e'
8.06,'d','e'
8.1,'d','e'
9.12,'d','e'
7.11,'d','e'
8,'d','e'
6.93,'d','e'
6.93,'d','e'
6.33,'d','e'
4.99,'d','e'
7.48,'d','e'
8.82,'d','e'
6.75,'d','e'
7.81,'d','e'
9.2,'d','e'
9.1,'d','e'
6.8,'d','e'
9.28,'d','e'
7.75,'d','e'
7.77,'d','e'
7.23,'d','e'
7.61,'d','e'
9.45,'d','e'
8.4,'d','e'
7.3,'d','e'
4.93,'d','e'
8.34,'d','e'
8.59,'d','e'
7.13,'d','e'
7.12,'d','e'
8.02,'d','e'
9.03,'d','e'
7.92,'d','e'
8.16,'d','e'
7.63,'d','e'
7.38,'d','e'
7.73,'d','e'
6.85,'d','e'
7.23,'d','e'
6.22,'d','e'
6.48,'d','e'
7.42,'d','e'
7.22,'d','e'
8.12,'d','e'
6.42,'d','p'
6.88,'d','p'
5.07,'d','p'
6.31,'d','p'
6.6,'d','p'
4.59,'d','p'
4.29,'d','p'
5.8,'d','p'
4.76,'d','p'
6.36,'d','p'
4.8,'d','p'
7,'d','p'
3.71,'d','p'
5.85,'d','p'
5.02,'d','p'
5.38,'d','p'
4.61,'d','p'
5.07,'d','p'
5.45,'d','p'
5.5,'d','p'
6.05,'d','p'
4.61,'d','p'
5.76,'d','p'
5.3,'d','p'
7.65,'d','p'
5.11,'d','p'
4.93,'d','p'
5.23,'d','p'
5.02,'d','p'
6.2,'d','p'
4.34,'d','p'
5.14,'d','p'
5.1,'d','p'
6.65,'d','p'
5.22,'d','p'
5.57,'d','p'
6.07,'d','p'
5.21,'d','p'
4.87,'d','p'
4.13,'d','p'
4.61,'d','p'
6.73,'d','p'
5.15,'d','p'
7.04,'d','p'
5.85,'d','p'
5.7,'d','p'
5.98,'d','p'
6.35,'d','p'
5.5,'d','p'
6.98,'d','p'
5.84,'d','p'
5.75,'d','p'
5.9,'d','p'
6.93,'d','p'
5.37,'d','p'
6.73,'d','p'
6.81,'d','p'
3.46,'d','p'
5.88,'d','p'
3.87,'d','p'
6.58,'d','p'
4.54,'d','p'
4.63,'d','p'
7.39,'d','p'
5.73,'d','p'
3.64,'d','p'
5.13,'d','p'
6.11,'d','p'
6.2,'d','p'
4.64,'d','p'
5.27,'d','p'
4.47,'d','p'
6.62,'d','p'
5.55,'d','p'
5.46,'d','p'
6.5,'d','p'
6.25,'d','p'
6.31,'d','p'
4.24,'d','p'
6.45,'d','p'
4.95,'d','p'
6.14,'d','p'
5.59,'d','p'
5.55,'d','p'
5.92,'d','p'
6.34,'d','p'
4.83,'d','p'
6.72,'d','p'
5.85,'d','p'
5.46,'d','p'
6.13,'d','p'
4.19,'d','p'
5.46,'d','p'
6.48,'d','p'
4.5,'d','p'
4.61,'d','p'
7.92,'d','p'
6.71,'d','p'
5.97,'d','p'
4.51,'d','p'
4.97,'d','p'
5.54,'d','p'
5.65,'d','p'
7.19,'d','p'
6.29,'d','p'
6.18,'d','p'
5.66,'d','p'
5.79,'d','p'
5.57,'d','p'
5.32,'d','p'
5.26,'d','p'
4.99,'d','p'
6.27,'d','p'
5.63,'d','p'
5.92,'d','p'
6.22,'d','p'
6.31,'d','p'
4.6,'d','p'
5.63,'d','p'
4.83,'d','p'
5.46,'d','p'
5.76,'d','p'
4.43,'d','p'
5.3,'d','p'
6.82,'d','p'
6.37,'d','p'
6.57,'d','p'
4.44,'d','p'
5.5,'d','p'
5.7,'d','p'
5.86,'d','p'
6.23,'d','p'
4.45,'d','p'
6.03,'d','p'
5.97,'d','p'
6.72,'d','p'
5.48,'d','p'
5.21,'d','p'
4.4,'d','p'
5.76,'d','p'
5.02,'d','p'
4.98,'d','p'
4.95,'d','p'
5.81,'d','p'
5.95,'d','p'
3.68,'d','p'
4.82,'d','p'
5.71,'d','p'
5.86,'d','p'
4.4,'d','p'
5.73,'d','p'
6.2,'d','p'
5.07,'d','p'
2.98,'d','p'
6.2,'d','p'
5.68,'d','p'
4.9,'d','p'
4.89,'d','p'
6.53,'d','p'
6.21,'d','p'
5.4,'d','p'
5.97,'d','p'
6.12,'d','p'
4.7,'d','p'
6.3,'d','p'
6.13,'d','p'
7.96,'d','p'
5.12,'d','p'
6.15,'d','p'
4.97,'d','p'
5.87,'d','p'
4.74,'d','p'
6.15,'d','p'
5.54,'d','p'
6.42,'d','p'
5.78,'d','p'
6.62,'d','p'
5.74,'d','p'
6.2,'d','p'
5.84,'d','p'
5.92,'d','p'
6.07,'d','p'
6.49,'d','p'
5.72,'d','p'
7.06,'d','p'
5.25,'d','p'
5.86,'d','p'
7.22,'d','p'
4.42,'d','p'
6.45,'d','p'
6.77,'d','p'
5.6,'d','p'
4.33,'d','p'
4.53,'d','p'
5.82,'d','p'
5.73,'d','p'
5.99,'d','p'
5.35,'d','p'
6.99,'d','p'
6.82,'d','p'
4.5,'d','p'
4.91,'d','p'
4.96,'d','p'
4.12,'d','p'
4.73,'d','p'
5.73,'d','p'
5.42,'d','p'
5.2,'d','p'
4.39,'d','p'
4.31,'d','p'
5.78,'d','p'
5.09,'d','p'
7.5,'d','p'
4.22,'d','p'
4.65,'d','p'
4.31,'d','p'
5.97,'d','p'
4.8,'d','p'
7.04,'d','p'
5.14,'d','p'
4.93,'d','p'
6.13,'d','p'
6.87,'d','p'
4.78,'d','p'
6.72,'d','p'
4.82,'d','p'
6.85,'d','p'
7.11,'d','p'
6.12,'d','p'
3.78,'d','p'
5.97,'d','p'
6.54,'d','p'
5.2,'d','p'
4.03,'d','p'
4.49,'d','p'
6.92,'d','p'
4.96,'d','p'
6.11,'d','p'
3.76,'d','p'
4.26,'d','p'
6.34,'d','p'
4.41,'d','p'
7.37,'d','p'
6.72,'d','p'
5.8,'d','p'
6.48,'d','p'
6.45,'d','p'
4.35,'d','p'
5.27,'d','p'
4.89,'d','p'
4.53,'d','p'
5.99,'d','p'
5.78,'d','p'
4.43,'d','p'
4.82,'d','p'
5.16,'d','p'
4.86,'d','p'
4.81,'d','p'
5.64,'d','p'
4.95,'d','p'
6.51,'d','p'
6.38,'d','p'
6.43,'d','p'
6.41,'d','p'
5.35,'d','p'
6.11,'d','p'
6.4,'d','p'
5.3,'d','p'
6.6,'d','p'
6.16,'d','p'
5.94,'d','p'
5.65,'d','p'
3.96,'d','p'
4.31,'d','p'
6.31,'d','p'
6.11,'d','p'
6.41,'d','p'
5.61,'d','p'
5.84,'d','p'
6.47,'d','p'
4.55,'d','p'
5.83,'d','p'
5.93,'d','p'
6.05,'d','p'
5.12,'d','p'
4.49,'d','p'
7.36,'d','p'
4.3,'d','p'
6.4,'d','p'
4.44,'d','p'
6.69,'d','p'
5.45,'d','p'
5.59,'d','p'
6.22,'d','p'
6.6,'d','p'
5.37,'d','p'
4.25,'d','p'
5.85,'d','p'
6.27,'d','p'
5.56,'d','p'
5.2,'d','p'
4.66,'d','p'
5.22,'d','p'
7.4,'d','p'
4.31,'d','p'
5.6,'d','p'
5.36,'d','p'
6.09,'d','p'
5.23,'d','p'
4.89,'d','p'
5.22,'d','p'
4.43,'d','p'
5.9,'d','p'
6.27,'d','p'
5.68,'d','p'
5.08,'d','p'
5.81,'d','p'
5.51,'d','p'
5.95,'d','p'
4.9,'d','p'
4.85,'d','p'
5.77,'d','p'
5.13,'d','p'
5.23,'d','p'
5.41,'d','p'
5.89,'d','p'
5.74,'d','p'
4.85,'d','p'
4.63,'d','p'
4.07,'d','p'
4,'d','p'
6.11,'d','p'
4.25,'d','p'
6.18,'d','p'
5.02,'d','p'
5.78,'d','p'
4.88,'d','p'
4.9,'d','p'
5.07,'d','p'
4.95,'d','p'
5.24,'d','p'
5.58,'d','p'
5.03,'d','p'
5.61,'d','p'
6.09,'d','p'
5.03,'d','p'
5.39,'d','p'
5.17,'d','p'
5.89,'d','p'
6.2,'d','p'
5.12,'d','p'
4.95,'d','p'
5.64,'d','p'
8.68,'d','e'
9.36,'d','e'
6.19,'d','e'
7.83,'m','e'
9.34,'d','e'
9.32,'d','e'
8.95,'d','e'
9.48,'m','e'
9.69,'d','e'
8.26,'m','e'
8.22,'d','e'
8.1,'d','e'
8.4,'m','e'
10.25,'m','e'
10.1,'d','e'
10.01,'d','e'
8.45,'m','e'
6.74,'d','e'
6.88,'m','e'
9.25,'m','e'
6.95,'d','e'
8.38,'d','e'
7.69,'m','e'
8.84,'m','e'
8.33,'m','e'
10.38,'d','e'
6.52,'m','e'
6.82,'d','e'
7.01,'d','e'
7.03,'m','e'
8.91,'d','e'
9.87,'d','e'
8.14,'m','e'
9.83,'d','e'
8.68,'m','e'
8.36,'m','e'
7.59,'m','e'
8.34,'d','e'
7.51,'d','e'
7.61,'m','e'
7.65,'d','e'
7.94,'d','e'
9.36,'m','e'
6.11,'m','e'
7.67,'d','e'
11.19,'m','e'
7.99,'m','e'
9.11,'m','e'
9.14,'m','e'
6.87,'m','e'
8.93,'m','e'
8.81,'m','e'
7.78,'d','e'
8.06,'d','e'
8.3,'d','e'
6.4,'d','e'
9.34,'m','e'
8.96,'d','e'
6.78,'m','e'
8.3,'d','e'
7.16,'d','e'
8.26,'m','e'
10.56,'d','e'
6.94,'d','e'
9.23,'d','e'
6.04,'d','e'
9.45,'m','e'
11.67,'d','e'
9.41,'d','e'
8.83,'d','e'
7.85,'m','e'
4.2,'d','e'
7.11,'m','e'
10.67,'m','e'
8.21,'m','e'
9.66,'d','e'
7.25,'m','e'
9.35,'d','e'
6.06,'d','e'
9.82,'m','e'
6.18,'m','e'
9.5,'d','e'
8.51,'d','e'
8.49,'d','e'
8.01,'m','e'
8.99,'m','e'
7.32,'d','e'
8.34,'d','e'
9.19,'m','e'
8.66,'m','e'
8.14,'d','e'
8.01,'d','e'
8.73,'d','e'
8.94,'m','e'
9.06,'d','e'
5.89,'d','e'
8.68,'m','e'
7.91,'m','e'
7.04,'d','e'
7.23,'d','e'
6.6,'d','e'
8.9,'m','e'
7.93,'m','e'
7.78,'d','e'
9.55,'m','e'
7.85,'m','e'
8.84,'d','e'
7.18,'d','e'
8.77,'d','e'
7.35,'d','e'
7.89,'d','e'
7.74,'d','e'
8.31,'d','e'
10.39,'m','e'
8.57,'m','e'
9.25,'d','e'
7.21,'m','e'
8.99,'m','e'
8.95,'m','e'
7.96,'m','e'
8.56,'m','e'
7.1,'d','e'
8.97,'m','e'
8.8,'d','e'
9.47,'m','e'
9.99,'m','e'
7.27,'m','e'
10.34,'d','e'
8.32,'d','e'
8.5,'m','e'
8.08,'d','e'
9.5,'d','e'
8.69,'m','e'
9.69,'m','e'
8.1,'m','e'
9.13,'m','e'
10.02,'d','e'
8.93,'m','e'
10.18,'m','e'
7.36,'m','e'
7.94,'d','e'
8.36,'m','e'
7.2,'d','e'
8.74,'m','e'
7.88,'d','e'
10.19,'m','e'
9.14,'m','e'
8.22,'m','e'
9.76,'m','e'
6.93,'d','e'
11,'d','e'
7.1,'d','e'
6.62,'m','e'
9.42,'d','e'
7.16,'d','e'
8.18,'m','e'
10.57,'d','e'
8.14,'m','e'
10.01,'d','e'
9.36,'d','e'
8.26,'d','e'
9.29,'d','e'
8.35,'m','e'
10.57,'d','e'
9.64,'m','e'
7.42,'m','e'
7.54,'m','e'
10.43,'m','e'
6.48,'d','e'
7.34,'d','e'
9.5,'d','e'
10.16,'m','e'
7.6,'d','e'
8.56,'d','e'
6.58,'d','e'
9.04,'m','e'
6.92,'m','e'
6.57,'m','e'
9.5,'d','e'
9.24,'d','e'
8.99,'m','e'
7.8,'d','e'
7.9,'d','e'
10.61,'d','e'
8.3,'m','e'
8.39,'d','e'
9.89,'d','e'
8.47,'m','e'
7.09,'d','e'
9.66,'m','e'
8.98,'m','e'
9.29,'m','e'
8.02,'m','e'
10.94,'m','e'
9.17,'m','e'
7.42,'m','e'
7.24,'d','e'
7.72,'d','e'
9.18,'d','e'
8.2,'m','e'
8.47,'m','e'
7.93,'m','e'
7.12,'m','e'
7.87,'d','e'
7.86,'d','e'
9.16,'d','e'
8.64,'d','e'
8.32,'m','e'
8.31,'m','e'
7.42,'m','e'
7.08,'d','e'
8.42,'m','e'
8.07,'m','e'
7.52,'m','e'
8.37,'m','e'
9.39,'m','e'
9.59,'m','e'
9.39,'m','e'
8.04,'m','e'
9.24,'m','e'
8.27,'d','e'
9.09,'d','e'
9.38,'d','e'
8.28,'d','e'
7.55,'d','e'
6.69,'d','e'
7.38,'d','e'
8.07,'d','e'
8.18,'d','e'
9.18,'d','e'
10.99,'m','e'
9.09,'m','e'
10.22,'d','e'
8.86,'m','e'
8.45,'d','e'
10.02,'d','e'
6.71,'m','e'
6.85,'d','e'
7.8,'m','e'
10.14,'m','e'
9.59,'d','e'
8.94,'d','e'
7.52,'d','e'
6.64,'d','e'
9.23,'m','e'
10.2,'d','e'
8.07,'m','e'
10.18,'d','e'
8.82,'d','e'
9.92,'m','e'
9.14,'m','e'
9.16,'m','e'
8.18,'d','e'
9.12,'d','e'
10.98,'d','e'
8.56,'d','e'
9.8,'d','e'
7.63,'d','e'
8.43,'m','e'
9.31,'d','e'
7.33,'d','e'
8.71,'m','e'
7.61,'d','e'
8.22,'d','e'
8.35,'m','e'
9.21,'d','e'
7.61,'d','e'
7.09,'d','e'
8.48,'d','e'
8.96,'m','e'
9.56,'d','e'
7.72,'m','e'
7.88,'m','e'
8.8,'d','e'
8.66,'m','e'
9.42,'d','e'
10.33,'d','e'
8.26,'d','e'
7.82,'m','e'
7.34,'d','e'
9.77,'d','e'
9.04,'d','e'
7.69,'d','e'
9.72,'d','e'
8,'m','e'
8.56,'d','e'
9.23,'d','e'
8.17,'m','e'
8.27,'m','e'
7.47,'m','e'
6.99,'m','e'
7.83,'m','e'
8.9,'m','e'
7.85,'m','e'
8.56,'m','e'
8.03,'m','e'
9.05,'d','e'
7.77,'m','e'
7.86,'m','e'
8.18,'m','e'
7.3,'d','e'
7.02,'d','e'
9.34,'d','e'
9.62,'m','e'
7.33,'d','e'
10.91,'d','e'
6.5,'d','e'
10.66,'d','e'
8.2,'d','e'
8.74,'m','e'
7.7,'d','e'
8.36,'m','e'
7.52,'d','e'
8.36,'m','e'
7.84,'d','e'
7.74,'m','e'
8.33,'d','e'
7.73,'m','e'
7.55,'m','e'
9.48,'d','e'
8.25,'m','e'
7.1,'m','e'
7.7,'d','e'
8.88,'m','e'
8.59,'d','e'
9.29,'d','e'
8.8,'d','e'
7.6,'m','e'
9.63,'d','e'
6.87,'d','e'
8.94,'m','e'
8.86,'m','e'
8.75,'m','e'
7.77,'m','e'
8.59,'m','e'
10.29,'m','e'
7.19,'m','e'
9.97,'d','e'
8.9,'m','e'
8.77,'d','e'
9.29,'d','e'
9.51,'m','e'
9.04,'d','e'
8.74,'m','e'
9.76,'m','e'
9.06,'m','e'
10.58,'d','e'
6.69,'m','e'
8.51,'d','e'
7.04,'m','e'
9.16,'m','e'
6.92,'d','e'
7.3,'m','e'
8.1,'d','e'
7.2,'g','e'
7.45,'g','e'
8,'d','e'
7.78,'g','e'
8.11,'d','e'
7.8,'d','e'
8.67,'d','e'
7.27,'g','e'
7.97,'g','e'
10.01,'d','e'
8.39,'d','e'
8.38,'g','e'
7.21,'d','e'
9.67,'g','e'
8.5,'g','e'
7.89,'g','e'
7.95,'g','e'
8.9,'d','e'
9.19,'d','e'
8.06,'g','e'
9.08,'g','e'
9.28,'d','e'
7.25,'g','e'
8.06,'d','e'
8.08,'g','e'
9.05,'g','e'
7.58,'d','e'
7.26,'d','e'
8.4,'g','e'
9.33,'g','e'
7.22,'g','e'
8.01,'d','e'
8.35,'g','e'
6.66,'g','e'
8.69,'g','e'
7.9,'d','e'
8.28,'g','e'
8.48,'d','e'
8.38,'g','e'
7.88,'g','e'
7.91,'g','e'
8.15,'g','e'
6.55,'d','e'
7.66,'d','e'
8.33,'d','e'
7.76,'g','e'
7.52,'g','e'
8.12,'d','e'
6.87,'g','e'
7.96,'d','e'
9.13,'d','e'
7.71,'d','e'
8.03,'d','e'
8.5,'g','e'
7.33,'g','e'
9.02,'g','e'
7.82,'d','e'
7.31,'d','e'
6.5,'d','e'
8.91,'d','e'
10.02,'d','e'
7.91,'d','e'
7.94,'d','e'
9.57,'d','e'
8.51,'g','e'
7.53,'g','e'
6.88,'g','e'
7.55,'g','e'
8.31,'d','e'
8.57,'d','e'
7.88,'g','e'
7.74,'d','e'
8.2,'g','e'
9.04,'d','e'
8.24,'d','e'
8.75,'g','e'
7.94,'d','e'
9.15,'d','e'
7.72,'g','e'
6.91,'d','e'
7.16,'d','e'
8.25,'d','e'
7.51,'g','e'
7.03,'d','e'
8.3,'g','e'
8.8,'d','e'
8.36,'d','e'
7.81,'g','e'
7.89,'d','e'
7.87,'d','e'
7.14,'d','e'
7.92,'g','e'
8.12,'d','e'
7.85,'d','e'
7.35,'d','e'
7.94,'d','e'
7.82,'g','e'
8.35,'g','e'
8.39,'d','e'
8.19,'d','e'
8.78,'d','e'
8.5,'d','e'
8.38,'g','e'
7.61,'g','e'
9.02,'d','e'
7.64,'g','e'
7.93,'g','e'
7.59,'g','e'
7.77,'g','e'
7.94,'d','e'
8.25,'d','e'
7.55,'d','e'
7.44,'d','e'
8.14,'g','e'
8.19,'d','e'
7.76,'g','e'
7.92,'d','e'
8.36,'d','e'
8.35,'g','e'
7.96,'d','e'
8.51,'d','e'
9.15,'g','e'
7.83,'d','e'
7.93,'d','e'
7.81,'d','e'
8.59,'g','e'
8.59,'g','e'
7.48,'d','e'
8.19,'d','e'
7.68,'d','e'
8.95,'g','e'
8.5,'g','e'
7.39,'d','e'
7.96,'d','e'
7.48,'d','e'
7.5,'d','e'
8.38,'d','e'
8.09,'d','e'
9.07,'d','e'
8.21,'d','e'
8.21,'g','e'
7.37,'g','e'
8.28,'d','e'
7.56,'g','e'
9.54,'g','e'
8.58,'g','e'
6.65,'g','e'
7.91,'d','e'
7.2,'d','e'
8.5,'g','e'
9.94,'g','e'
7.24,'d','e'
8.34,'d','e'
8.87,'g','e'
8.62,'d','e'
7.45,'g','e'
8.04,'d','e'
8.31,'d','e'
8.51,'d','e'
8.45,'g','e'
8.15,'d','e'
7.78,'d','e'
7.76,'d','e'
8.39,'g','e'
7.31,'d','e'
6.28,'d','e'
8.39,'d','e'
7.98,'g','e'
7.92,'g','e'
8.27,'d','e'
7.39,'g','e'
7.49,'d','e'
8.09,'g','e'
8.53,'d','e'
8.53,'g','e'
9.1,'g','e'
8.03,'g','e'
8.43,'g','e'
8.59,'d','e'
7.49,'d','e'
7.78,'d','e'
7.29,'d','e'
7.48,'g','e'
8.64,'g','e'
7.54,'g','e'
8.06,'g','e'
9.03,'d','e'
7.98,'g','e'
8.51,'g','e'
8.68,'g','e'
7.78,'g','e'
7.58,'g','e'
8.03,'d','e'
7.92,'d','e'
6.65,'d','e'
7.66,'d','e'
8.2,'g','e'
7.88,'d','e'
7.79,'d','e'
7.33,'g','e'
7.47,'d','e'
8.67,'d','e'
9.11,'g','e'
7.46,'d','e'
7.82,'d','e'
6.36,'g','e'
7.6,'g','e'
7.01,'d','e'
7.92,'d','e'
8.34,'d','e'
8.12,'d','e'
8.35,'d','e'
7.43,'g','e'
7.71,'d','e'
5.92,'g','e'
7.39,'d','e'
8.25,'d','e'
9.24,'g','e'
8.09,'g','e'
6.88,'d','e'
7.61,'d','e'
8.09,'d','e'
8.11,'g','e'
7.58,'g','e'
9.07,'d','e'
7.94,'d','e'
6.47,'g','e'
8.41,'d','e'
7.58,'g','e'
8.25,'g','e'
8.08,'g','e'
8.05,'g','e'
7.41,'d','e'
7.52,'d','e'
7.72,'d','e'
8.3,'d','e'
7.37,'d','e'
7.65,'g','e'
7.73,'g','e'
9.18,'g','e'
8.15,'d','e'
7.82,'d','e'
8.51,'g','e'
9.76,'d','e'
7.22,'g','e'
8.22,'d','e'
7.42,'d','e'
7.92,'d','e'
7.2,'d','e'
7.99,'g','e'
9.17,'g','e'
8.61,'g','e'
6.04,'d','e'
7.76,'g','e'
8.88,'d','e'
7.76,'d','e'
8.72,'d','e'
7.64,'d','e'
9.14,'d','e'
7.9,'g','e'
7.58,'g','e'
6.85,'g','e'
8.33,'d','e'
7.64,'d','e'
8.13,'g','e'
7.67,'g','e'
7.55,'g','e'
8.68,'d','e'
8.66,'g','e'
7.85,'d','e'
7.41,'d','e'
7.42,'d','e'
8.17,'d','e'
8.25,'g','e'
9.02,'d','e'
8.2,'g','e'
7.84,'d','e'
7.21,'d','e'
8.19,'d','e'
8.22,'g','e'
7.28,'g','e'
7.25,'g','e'
9.06,'d','e'
7.06,'g','e'
7.84,'d','e'
7.15,'g','e'
7.41,'g','e'
8.05,'d','e'
7.62,'d','e'
7.86,'d','e'
8.23,'d','e'
7.78,'g','e'
8.49,'d','e'
6.87,'d','e'
8.2,'g','e'
7.87,'g','e'
7.47,'d','e'
7.94,'g','e'
8.48,'g','e'
8.81,'g','e'
6.93,'d','e'
7.7,'g','e'
8.76,'g','e'
8.72,'d','e'
8.29,'d','e'
7.05,'d','e'
9.04,'d','e'
7.33,'d','e'
7.72,'d','e'
6.86,'d','e'
8.3,'g','e'
6.76,'g','e'
8.7,'d','e'
8.58,'d','e'
8.73,'g','e'
7.16,'d','e'
8.47,'d','e'
8.9,'d','e'
8.31,'g','e'
7.87,'d','e'
7.44,'d','e'
7.8,'d','e'
7.5,'g','e'
8.28,'g','e'
7.15,'d','e'
7.59,'g','e'
8.8,'g','e'
7.14,'g','e'
7.78,'d','e'
7.64,'g','e'
8.14,'d','e'
7.05,'g','e'
6.61,'d','e'
7.9,'g','e'
7.45,'g','e'
8.24,'d','e'
7.95,'g','e'
7.69,'g','e'
8.38,'g','e'
8.09,'d','e'
8.25,'d','e'
7.55,'d','e'
8.49,'g','e'
8.2,'d','e'
8,'g','e'
7.49,'g','e'
7.86,'g','e'
7.89,'d','e'
8.48,'d','e'
7.58,'g','e'
9.23,'g','e'
8.57,'d','e'
6.81,'d','e'
7.3,'l','e'
5.89,'l','e'
8.67,'l','e'
7.41,'m','e'
7.76,'g','e'
6.69,'g','e'
7.82,'d','e'
6.34,'g','e'
5.68,'d','e'
8.23,'g','e'
5.94,'d','e'
5.4,'g','e'
7.21,'d','e'
7.17,'d','e'
8.52,'d','e'
7.78,'g','e'
7.79,'l','e'
5.16,'l','e'
7.63,'d','e'
7.08,'m','e'
6.51,'d','e'
6.21,'l','e'
5.71,'l','e'
7.43,'g','e'
5.2,'d','e'
6.41,'d','e'
7.06,'m','e'
5.91,'l','e'
7.44,'l','e'
6.9,'g','e'
7.28,'d','e'
6.81,'l','e'
7.19,'d','e'
9.7,'g','e'
6.61,'m','e'
5.11,'g','e'
6.01,'l','e'
7.12,'g','e'
7.9,'g','e'
5.48,'g','e'
7.77,'d','e'
6.93,'g','e'
6.13,'m','e'
7.77,'g','e'
5.34,'m','e'
7.42,'l','e'
6.64,'l','e'
6.27,'d','e'
5.23,'g','e'
8.86,'m','e'
6.2,'g','e'
7.57,'l','e'
7.2,'g','e'
6.97,'d','e'
7.2,'d','e'
8.33,'d','e'
7.11,'l','e'
6.99,'m','e'
6.93,'m','e'
6.88,'d','e'
7.46,'l','e'
6.73,'l','e'
7.48,'m','e'
7.96,'g','e'
6.01,'m','e'
6.6,'l','e'
4.85,'m','e'
5.78,'g','e'
8.74,'d','e'
7.19,'d','e'
6.51,'l','e'
7.22,'d','e'
6.74,'d','e'
7.8,'d','e'
7.96,'g','e'
7.11,'m','e'
6.62,'l','e'
6.57,'g','e'
8.21,'g','e'
6.84,'g','e'
6.68,'l','e'
7.6,'m','e'
7.66,'g','e'
6.85,'l','e'
4.8,'l','e'
5.73,'d','e'
5.92,'m','e'
5.95,'l','e'
7.26,'l','e'
7.06,'m','e'
6.38,'d','e'
8.47,'m','e'
7.73,'m','e'
6.89,'d','e'
6.3,'l','e'
6.09,'d','e'
6.26,'g','e'
7.9,'g','e'
3.89,'m','e'
8.1,'d','e'
5.7,'d','e'
7.96,'m','e'
6.77,'l','e'
6.29,'g','e'
6.9,'l','e'
6.17,'d','e'
5.46,'g','e'
7.91,'g','e'
7.51,'m','e'
5.34,'l','e'
7.68,'l','e'
5.51,'l','e'
5.59,'l','e'
8.01,'g','e'
7.55,'d','e'
8.09,'m','e'
6.32,'l','e'
6.49,'m','e'
5.43,'m','e'
7.3,'d','e'
6.19,'l','e'
6.82,'m','e'
8.73,'g','e'
7.09,'l','e'
7.51,'l','e'
7.36,'m','e'
6.44,'d','e'
7.06,'d','e'
8.41,'d','e'
7.44,'g','e'
6.16,'m','e'
8.47,'d','e'
5.02,'m','e'
7.13,'l','e'
7.77,'g','e'
8.18,'g','e'
6.89,'g','e'
7.21,'g','e'
8.12,'m','e'
6.79,'d','e'
7.72,'m','e'
6.14,'g','e'
5.35,'d','e'
7.47,'d','e'
9.08,'d','e'
6.64,'g','e'
7.57,'l','e'
7.62,'d','e'
7.66,'l','e'
9.01,'l','e'
8.47,'l','e'
6.91,'g','e'
8.17,'l','e'
7.92,'g','e'
5.84,'d','e'
7.56,'g','e'
5.81,'l','e'
5.91,'d','e'
5.56,'g','e'
10.34,'d','e'
7.26,'l','e'
6.47,'l','e'
5.81,'m','e'
6.24,'l','e'
6.02,'d','e'
7.45,'d','e'
7.46,'m','e'
5.99,'l','e'
6.82,'m','e'
7.42,'g','e'
7.64,'m','e'
6.87,'d','e'
6.92,'l','e'
4.24,'d','e'
7.78,'m','e'
8.54,'d','e'
6.6,'d','e'
6.83,'m','e'
7.44,'m','e'
7.28,'m','e'
5.97,'d','e'
7.92,'d','e'
8.57,'m','e'
5.58,'g','e'
5.49,'g','e'
7.86,'m','e'
8.74,'l','e'
7.94,'l','e'
7.68,'l','e'
7.28,'m','e'
7.31,'d','e'
5.36,'m','e'
7.74,'l','e'
5.33,'m','e'
8.23,'m','e'
7.57,'d','e'
6.12,'g','e'
6.34,'m','e'
8.31,'d','e'
7.15,'m','e'
7.7,'g','e'
8.03,'g','e'
6.73,'d','e'
6.78,'g','e'
7.19,'l','e'
4.68,'l','e'
7.28,'g','e'
7.41,'m','e'
6.39,'m','e'
7.66,'m','e'
7.09,'l','e'
5.69,'l','e'
6.81,'l','e'
6.4,'g','e'
7.31,'g','e'
7.48,'m','e'
6.27,'d','e'
7.79,'m','e'
6.2,'l','e'
6.44,'m','e'
6.95,'m','e'
6.77,'g','e'
5.51,'d','e'
6.9,'g','e'
7.64,'g','e'
6.94,'g','e'
5.97,'d','e'
8.33,'d','e'
7.84,'m','e'
6.54,'g','e'
5.2,'d','e'
7.67,'d','e'
7.99,'m','e'
7.05,'l','e'
6.81,'l','e'
8.71,'l','e'
7.15,'l','e'
5.41,'g','e'
5.5,'d','e'
9.02,'g','e'
6.99,'m','e'
10.14,'g','e'
7.33,'m','e'
7.19,'l','e'
5.75,'d','e'
6.69,'l','e'
9.14,'m','e'
7.59,'g','e'
8.3,'l','e'
6.73,'l','e'
7.61,'m','e'
5.87,'d','e'
9.22,'l','e'
6.35,'g','e'
8.56,'l','e'
5.78,'g','e'
7.98,'l','e'
7.52,'l','e'
8.17,'m','e'
6.53,'m','e'
7.26,'l','e'
8.22,'l','e'
6.47,'g','e'
6.03,'d','e'
9.14,'g','e'
5.91,'d','e'
7.04,'d','e'
6.34,'m','e'
8.07,'d','e'
6.57,'g','e'
5.69,'d','e'
7.1,'d','e'
7.34,'d','e'
8.09,'g','e'
6.03,'g','e'
6.65,'d','e'
9.18,'d','e'
7.73,'m','e'
6.69,'d','e'
5.12,'d','e'
6.73,'m','e'
6.08,'l','e'
5.11,'l','e'
7.16,'l','e'
7.71,'l','e'
6.18,'d','e'
7.93,'m','e'
6.42,'d','e'
6.37,'l','e'
8.61,'m','e'
6.62,'m','e'
7.15,'g','e'
8.01,'d','e'
6.36,'g','e'
4.62,'l','e'
6.07,'d','e'
7.53,'m','e'
7.58,'d','e'
6.24,'d','e'
7.23,'d','e'
7.41,'d','e'
5.69,'g','e'
6.72,'m','e'
9.81,'m','e'
7.22,'d','e'
7.63,'d','e'
6.77,'l','e'
8.38,'l','e'
5.96,'d','e'
8.13,'g','e'
6.51,'g','e'
7.35,'g','e'
7.12,'m','e'
6.49,'d','e'
5.46,'l','e'
7.34,'l','e'
7.1,'g','e'
7.56,'d','e'
7.69,'g','e'
6.74,'m','e'
6.74,'d','e'
6.51,'g','e'
7.22,'l','e'
6.44,'m','e'
6.81,'d','e'
7.38,'d','e'
8.63,'d','e'
7.69,'d','e'
8.15,'d','e'
7.72,'l','e'
8.07,'l','e'
6.8,'g','e'
6.53,'g','e'
7.7,'d','e'
8.1,'m','e'
7.14,'g','e'
7.98,'g','e'
5.91,'l','e'
6.29,'m','e'
7.36,'l','e'
6.22,'g','e'
6.96,'g','e'
7.5,'d','e'
6.56,'m','e'
8.96,'m','e'
6.04,'m','e'
6.94,'g','e'
5.65,'m','e'
7.18,'l','e'
5.17,'d','e'
6.43,'d','e'
6.44,'g','e'
9.31,'d','p'
8.54,'d','p'
7.67,'d','p'
8.1,'d','p'
8.78,'d','p'
9.48,'d','p'
7.04,'d','p'
5.31,'d','p'
8.33,'d','p'
9.03,'d','p'
6.36,'d','p'
8.65,'d','p'
9.54,'d','p'
9.4,'d','p'
10.85,'d','p'
7.35,'d','p'
8.04,'d','p'
7.38,'d','p'
8.05,'d','p'
6.09,'d','p'
6.39,'d','p'
7.78,'d','p'
6.63,'d','p'
8.74,'d','p'
10.42,'d','p'
7.12,'d','p'
7.71,'d','p'
6.59,'d','p'
8.36,'d','p'
7.56,'d','p'
7.47,'d','p'
8.7,'d','p'
10.26,'d','p'
8.6,'d','p'
9.6,'d','p'
8.73,'d','p'
8.53,'d','p'
8.18,'d','p'
8.65,'d','p'
6.26,'d','p'
8.29,'d','p'
8.11,'d','p'
7.63,'d','p'
5.84,'d','p'
6.98,'d','p'
10.66,'d','p'
7.57,'d','p'
7.41,'d','p'
8.58,'d','p'
6.32,'d','p'
9.07,'d','p'
8.3,'d','p'
9.65,'d','p'
9.58,'d','p'
7.38,'d','p'
6.94,'d','p'
8.09,'d','p'
7.48,'d','p'
7.6,'d','p'
8.36,'d','p'
7.13,'d','p'
8.07,'d','p'
9.33,'d','p'
6.67,'d','p'
10,'d','p'
7.74,'d','p'
8.7,'d','p'
6.95,'d','p'
5.26,'d','p'
6.49,'d','p'
7.79,'d','p'
9.83,'d','p'
9.01,'d','p'
8.1,'d','p'
8.44,'d','p'
9.68,'d','p'
7.33,'d','p'
5.83,'d','p'
8.44,'d','p'
7.91,'d','p'
8.86,'d','p'
10.1,'d','p'
5.84,'d','p'
7,'d','p'
5.98,'d','p'
6.55,'d','p'
9.42,'d','p'
7.9,'d','p'
6.14,'d','p'
10.85,'d','p'
6.59,'d','p'
7.71,'d','p'
7.46,'d','p'
8.3,'d','p'
8.49,'d','p'
8.92,'d','p'
8.59,'d','p'
6.9,'d','p'
8.76,'d','p'
7.49,'d','p'
8.57,'d','p'
9.05,'d','p'
9.77,'d','p'
7.6,'d','p'
8.45,'d','p'
7.11,'d','p'
7.43,'d','p'
8.38,'d','p'
7.83,'d','p'
9.67,'d','p'
5.6,'d','p'
8.42,'d','p'
7.72,'d','p'
8.95,'d','p'
8.23,'d','p'
10.08,'d','p'
8.24,'d','p'
6.47,'d','p'
7.12,'d','p'
8.79,'d','p'
7.91,'d','p'
11.59,'d','p'
9.93,'d','p'
6.76,'d','p'
5.44,'d','p'
7.4,'d','p'
5.99,'d','p'
8.65,'d','p'
8.03,'d','p'
6.86,'d','p'
7.47,'d','p'
9.69,'d','p'
8.89,'d','p'
9.57,'d','p'
6.29,'d','p'
9.83,'d','p'
8.35,'d','p'
5.95,'d','p'
6.7,'d','p'
8.44,'d','p'
8.84,'d','p'
8.51,'d','p'
8.52,'d','p'
5.59,'d','p'
8.53,'d','p'
7.34,'d','p'
8.01,'d','p'
9.03,'d','p'
8.46,'d','p'
8.14,'d','p'
9.79,'d','p'
6.35,'d','p'
5.1,'d','p'
6.84,'d','p'
7.67,'d','p'
8.19,'d','p'
7.39,'d','p'
7.08,'d','p'
7.59,'d','p'
9.39,'d','p'
8.07,'d','p'
9.82,'d','p'
5.93,'d','p'
6.69,'d','p'
8.8,'d','p'
6.32,'d','p'
5.2,'d','p'
9.15,'d','p'
6.82,'d','p'
9.94,'d','p'
6.68,'d','p'
9.35,'d','p'
7.83,'d','p'
6.78,'d','p'
10.59,'d','p'
9.8,'d','p'
7.47,'d','p'
9.12,'d','p'
6.36,'d','p'
7.78,'d','p'
8.18,'d','p'
6.32,'d','p'
8.55,'d','p'
8.54,'d','p'
9.33,'d','p'
5.89,'d','p'
6.9,'d','p'
9.61,'d','p'
6.42,'d','p'
9.59,'d','p'
6.53,'d','p'
8.6,'d','p'
6.35,'d','p'
7.68,'d','p'
9.42,'d','p'
8.04,'d','p'
9.24,'d','p'
8.65,'d','p'
8.06,'d','p'
9.21,'d','p'
7.08,'d','p'
6.4,'d','p'
7.57,'d','p'
8.44,'d','p'
5.83,'d','p'
9.61,'d','p'
6.6,'d','p'
5.51,'d','p'
7.87,'d','p'
7.1,'d','p'
8.7,'d','p'
7.46,'d','p'
7.5,'d','p'
9,'d','p'
7.51,'d','p'
7.27,'d','p'
7.89,'d','p'
7.9,'d','p'
9.43,'d','p'
7.1,'d','p'
8.5,'d','p'
8.82,'d','p'
9.2,'d','p'
8.91,'d','p'
7.64,'d','p'
7.84,'d','p'
6.53,'d','p'
5.79,'d','p'
7.74,'d','p'
9.33,'d','p'
6.77,'d','p'
9.5,'d','p'
7.41,'d','p'
6.2,'d','p'
8.03,'d','p'
9.27,'d','p'
7.81,'d','p'
4.95,'d','p'
8.17,'d','p'
8.72,'d','p'
8.18,'d','p'
8.11,'d','p'
8.46,'d','p'
8.54,'d','p'
7.49,'d','p'
6.31,'d','p'
8.02,'d','p'
5,'d','p'
7.74,'d','p'
7.19,'d','p'
8.33,'d','p'
9.44,'d','p'
5.76,'d','p'
7.67,'d','p'
7.59,'d','p'
7.2,'d','p'
9.16,'d','p'
7.58,'d','p'
6.39,'d','p'
7.28,'d','p'
5.76,'d','p'
8.07,'d','p'
8.62,'d','p'
5.35,'d','p'
9.11,'d','p'
7.8,'d','p'
8.49,'d','p'
8.31,'d','p'
7.1,'d','p'
8.86,'d','p'
6.72,'d','p'
9.98,'d','p'
7.42,'d','p'
8.39,'d','p'
8.85,'d','p'
9.41,'d','p'
8.3,'d','p'
9.42,'d','p'
6.92,'d','p'
7.39,'d','p'
9.85,'d','p'
9.58,'d','p'
7.16,'d','p'
7.97,'d','p'
6.61,'d','p'
9.03,'d','p'
7.76,'d','p'
7.56,'d','p'
8,'d','p'
8.18,'d','p'
8.38,'d','p'
9.1,'d','p'
7.98,'d','p'
8.72,'d','p'
8.3,'d','p'
4.44,'d','p'
7.06,'d','p'
10.83,'d','p'
12.14,'d','p'
10.47,'d','p'
8.72,'d','p'
8.23,'d','p'
8.18,'d','p'
5.28,'d','p'
7.15,'d','p'
9.95,'d','p'
7.27,'d','p'
8.31,'d','p'
6.72,'d','p'
5.93,'d','p'
8.19,'d','p'
7.84,'d','p'
7.88,'d','p'
7.36,'d','p'
8.7,'d','p'
9.14,'d','p'
7.35,'d','p'
7.24,'d','p'
8.62,'d','p'
7.37,'d','p'
9.71,'d','p'
9.46,'d','p'
8.59,'d','p'
6.43,'d','p'
7.96,'d','p'
8.73,'d','p'
6.6,'d','p'
6.73,'d','p'
10.23,'d','p'
5.84,'d','p'
8.41,'d','p'
8.43,'d','p'
8.09,'d','p'
8.25,'d','p'
8.2,'d','p'
10.45,'d','p'
8.84,'d','p'
6.86,'d','p'
8.63,'d','p'
8.47,'d','p'
6.66,'d','p'
9.4,'d','p'
9.28,'d','p'
10.4,'d','p'
9,'d','p'
9.84,'d','p'
8.14,'d','p'
8.15,'d','p'
7.35,'d','p'
7.82,'d','p'
5.88,'d','p'
8.07,'d','p'
10.22,'d','p'
3.03,'m','e'
3.06,'m','e'
3.85,'g','e'
2.31,'g','e'
4.05,'m','e'
4.18,'g','e'
3.26,'g','e'
3.85,'m','e'
3.72,'m','e'
3.58,'g','e'
3.23,'m','e'
2.58,'m','e'
3.64,'g','e'
2.67,'m','e'
4.12,'m','e'
4.07,'g','e'
3.2,'m','e'
3.43,'g','e'
2.96,'g','e'
3.11,'m','e'
3.08,'g','e'
3.23,'m','e'
3.45,'m','e'
3.58,'m','e'
3.83,'m','e'
3.7,'m','e'
3.59,'g','e'
3.5,'g','e'
3.87,'g','e'
3.59,'g','e'
2.99,'m','e'
3.68,'m','e'
2.85,'g','e'
3.96,'g','e'
3.38,'m','e'
3.37,'g','e'
3.66,'m','e'
3.65,'m','e'
3.6,'g','e'
2.44,'m','e'
2.52,'m','e'
2.94,'m','e'
3.98,'g','e'
2.39,'g','e'
4.3,'m','e'
3.08,'m','e'
3.56,'g','e'
2.66,'g','e'
3.75,'m','e'
3.31,'m','e'
2.94,'g','e'
3.69,'m','e'
3.75,'m','e'
3.73,'g','e'
3.93,'g','e'
3.8,'g','e'
3.5,'g','e'
3.26,'g','e'
3.37,'m','e'
4.35,'g','e'
3.45,'m','e'
3.96,'g','e'
3.16,'g','e'
4.22,'m','e'
3.54,'m','e'
3.15,'g','e'
3.26,'m','e'
3.94,'m','e'
3.26,'m','e'
3.21,'g','e'
3.44,'g','e'
4.08,'m','e'
2.74,'g','e'
4.11,'m','e'
3.13,'m','e'
3.54,'m','e'
3.74,'m','e'
3.5,'g','e'
2.81,'g','e'
3.14,'g','e'
3.16,'m','e'
4.62,'g','e'
2.79,'m','e'
2.62,'g','e'
3.24,'m','e'
4.31,'g','e'
3.31,'g','e'
2.48,'g','e'
4.23,'m','e'
3.74,'m','e'
3.97,'g','e'
3.35,'m','e'
2.49,'g','e'
3.21,'g','e'
4.08,'m','e'
2.52,'g','e'
3.02,'m','e'
4.46,'g','e'
3.32,'g','e'
4.31,'g','e'
2.02,'m','e'
3.48,'m','e'
3.17,'g','e'
2.97,'m','e'
2.97,'g','e'
3.72,'m','e'
3.69,'m','e'
4.27,'g','e'
2.79,'m','e'
4,'g','e'
3.87,'m','e'
2.76,'g','e'
4.1,'g','e'
4.01,'m','e'
3.75,'g','e'
3.38,'g','e'
3.5,'m','e'
3.4,'m','e'
3.88,'m','e'
2.75,'g','e'
3.73,'m','e'
3.98,'m','e'
2.33,'g','e'
3.14,'g','e'
3.55,'g','e'
3.24,'g','e'
3.29,'g','e'
3.64,'g','e'
3.36,'m','e'
3.1,'g','e'
4.21,'m','e'
2.94,'m','e'
3.39,'g','e'
3.35,'g','e'
3.51,'g','e'
2.81,'g','e'
3.66,'g','e'
3.32,'m','e'
3.11,'g','e'
2.46,'g','e'
4.29,'m','e'
3.32,'m','e'
3.05,'m','e'
2.75,'g','e'
2.88,'m','e'
4.12,'m','e'
3.8,'g','e'
3.93,'m','e'
3.15,'g','e'
3.09,'m','e'
4.41,'m','e'
3.28,'m','e'
3.83,'g','e'
3.28,'g','e'
3.49,'m','e'
3.62,'g','e'
3.57,'g','e'
3.51,'m','e'
3.8,'g','e'
3.3,'m','e'
3.34,'m','e'
2.76,'g','e'
4.11,'g','e'
2.87,'g','e'
3.82,'g','e'
4.6,'m','e'
3.48,'g','e'
3.4,'m','e'
3.32,'g','e'
3.86,'g','e'
3.23,'m','e'
3.4,'m','e'
3.84,'g','e'
2.94,'m','e'
3.77,'g','e'
3.79,'m','e'
3.84,'g','e'
4.12,'g','e'
2.73,'g','e'
2.5,'m','e'
3.19,'m','e'
3.56,'g','e'
3.49,'g','e'
4.13,'m','e'
2.65,'g','e'
3.87,'g','e'
2.74,'g','e'
4.58,'m','e'
3.98,'m','e'
4.19,'g','e'
3.85,'g','e'
2.56,'g','e'
4.43,'g','e'
4.3,'m','e'
4.1,'m','e'
3.4,'m','e'
3.17,'m','e'
3.43,'m','e'
3.76,'m','e'
4.77,'m','e'
3.22,'m','e'
3.77,'g','e'
3.88,'m','e'
2.32,'m','e'
3.58,'m','e'
3.31,'g','e'
3.49,'m','e'
3.96,'m','e'
3.91,'m','e'
2.69,'m','e'
3,'g','e'
3.07,'g','e'
2.43,'m','e'
2.95,'m','e'
3.43,'m','e'
3.55,'m','e'
3.25,'m','e'
3.06,'g','e'
3.51,'m','e'
3.13,'g','e'
2.45,'g','e'
3.34,'g','e'
3.2,'m','e'
2.88,'g','e'
3.5,'g','e'
3.47,'m','e'
3.18,'m','e'
3.17,'m','e'
2.87,'m','e'
3.48,'m','e'
4.41,'g','e'
3.85,'m','e'
3.45,'m','e'
3.05,'m','e'
3.29,'g','e'
3.25,'g','e'
3.92,'m','e'
3.7,'g','e'
2.87,'g','e'
4.31,'g','e'
3.45,'m','e'
2.61,'g','e'
4.56,'m','e'
3.47,'g','e'
2.82,'m','e'
3.92,'m','e'
3.15,'g','e'
3.59,'g','e'
3.41,'g','e'
2.97,'m','e'
3.66,'m','e'
3.29,'g','e'
3.42,'m','e'
4.4,'g','e'
3.08,'m','e'
3.45,'g','e'
3.38,'m','e'
3.86,'m','e'
4.4,'g','e'
3.72,'m','e'
3.52,'m','e'
2.8,'m','e'
2.93,'m','e'
3.76,'m','e'
3.7,'m','e'
3.96,'g','e'
2.93,'g','e'
3.09,'g','e'
2.83,'g','e'
3.23,'m','e'
3.62,'m','e'
3.89,'g','e'
2.73,'m','e'
3.48,'g','e'
4.14,'g','e'
3.74,'g','e'
4.01,'m','e'
3.65,'g','e'
2.97,'g','e'
2.46,'g','e'
3.88,'m','e'
3.33,'m','e'
3.66,'m','e'
3.33,'g','e'
3.1,'g','e'
4.25,'m','e'
3.33,'m','e'
3.64,'m','e'
4.09,'m','e'
3.4,'m','e'
4.05,'g','e'
4.23,'g','e'
3.86,'m','e'
2.73,'m','e'
3.18,'m','e'
3.7,'g','e'
3.38,'g','e'
2.51,'m','e'
3.71,'m','e'
3.21,'g','e'
4.09,'g','e'
2.52,'m','e'
3.52,'g','e'
3.46,'g','e'
3.92,'g','e'
3.37,'g','e'
3.65,'g','e'
3.38,'m','e'
3.32,'g','e'
3.78,'g','e'
2.99,'g','e'
2.76,'g','e'
4.2,'m','e'
3.72,'g','e'
3.91,'g','e'
3.37,'g','e'
3.98,'g','e'
3.77,'m','e'
3.36,'g','e'
2.96,'m','e'
3.14,'m','e'
2.48,'g','e'
3.74,'g','e'
2.63,'m','e'
3.04,'m','e'
3.18,'m','e'
3.74,'m','e'
2.76,'g','e'
4.18,'m','e'
3.88,'m','e'
3.51,'g','e'
3.58,'m','e'
2.96,'g','e'
3.61,'m','e'
3.75,'g','e'
3.85,'m','e'
2.89,'g','e'
3.67,'g','e'
3.7,'m','e'
2.83,'m','e'
4.59,'m','e'
3.62,'m','e'
2.63,'g','e'
3.53,'m','e'
3.63,'m','e'
4.18,'m','e'
3.79,'g','e'
3.28,'g','e'
3.03,'m','e'
3.59,'m','e'
4.35,'m','e'
4.48,'m','e'
3.18,'m','e'
4.81,'g','p'
5.14,'g','p'
4.52,'g','p'
5.25,'g','p'
4.98,'g','p'
4.53,'g','p'
5.56,'g','p'
4.74,'g','p'
4.43,'g','p'
4.45,'g','p'
3.99,'g','p'
4.59,'g','p'
3.88,'g','p'
4.53,'g','p'
4.98,'g','p'
4.28,'g','p'
4.08,'g','p'
4.4,'g','p'
4.74,'g','p'
5.38,'g','p'
4.78,'g','p'
5.23,'g','p'
5.39,'g','p'
4.45,'g','p'
5.47,'g','p'
4.36,'g','p'
5.42,'g','p'
4.42,'g','p'
4.75,'g','p'
3.79,'g','p'
4.79,'g','p'
5.28,'g','p'
4.37,'g','p'
4.32,'g','p'
4.42,'g','p'
4.58,'g','p'
4.56,'g','p'
4.41,'g','p'
5.14,'g','p'
4.39,'g','p'
4.93,'g','p'
5.25,'g','p'
5.02,'g','p'
4.31,'g','p'
5.33,'g','p'
4.46,'g','p'
4.29,'g','p'
4.62,'g','p'
4.04,'g','p'
4.78,'g','p'
4.44,'g','p'
4.13,'g','p'
4.41,'g','p'
4.42,'g','p'
4.53,'g','p'
4.42,'g','p'
4.22,'g','p'
4.1,'g','p'
4.07,'g','p'
5,'g','p'
4.39,'g','p'
4.71,'g','p'
5.21,'g','p'
4.07,'g','p'
4.41,'g','p'
5.46,'g','p'
4.16,'g','p'
3.95,'g','p'
4.52,'g','p'
4.01,'g','p'
4.68,'g','p'
4.25,'g','p'
4.49,'g','p'
5.05,'g','p'
4.65,'g','p'
4.26,'g','p'
4.1,'g','p'
4.37,'g','p'
4.94,'g','p'
5.16,'g','p'
5.04,'g','p'
3.9,'g','p'
3.92,'g','p'
4.79,'g','p'
3.8,'g','p'
4.94,'g','p'
3.52,'g','p'
4.75,'g','p'
4.25,'g','p'
4.56,'g','p'
4.28,'g','p'
4.87,'g','p'
4.43,'g','p'
4.33,'g','p'
4.68,'g','p'
4.26,'g','p'
4.83,'g','p'
4.85,'g','p'
4.22,'g','p'
3.95,'g','p'
5.22,'g','p'
4.03,'g','p'
4.91,'g','p'
3.68,'g','p'
4.54,'g','p'
4.17,'g','p'
3.54,'g','p'
4.66,'g','p'
4.07,'g','p'
4.62,'g','p'
4.31,'g','p'
4.32,'g','p'
4.71,'g','p'
5.12,'g','p'
4.36,'g','p'
5.09,'g','p'
4.27,'g','p'
4.17,'g','p'
4.34,'g','p'
4.43,'g','p'
4.84,'g','p'
4.88,'g','p'
4.48,'g','p'
4.33,'g','p'
5.17,'g','p'
4.55,'g','p'
4.4,'g','p'
4.92,'g','p'
3.14,'g','p'
4.16,'g','p'
4.57,'g','p'
4.91,'g','p'
4.47,'g','p'
5.07,'g','p'
5.76,'g','p'
4.85,'g','p'
4.76,'g','p'
4.48,'g','p'
4.51,'g','p'
5.05,'g','p'
4.38,'g','p'
5.22,'g','p'
4.63,'g','p'
4.71,'g','p'
4.67,'g','p'
3.75,'g','p'
4.49,'g','p'
4.71,'g','p'
5.74,'g','p'
4.95,'g','p'
4.24,'g','p'
3.94,'g','p'
4.56,'g','p'
4.3,'g','p'
4.29,'g','p'
4.24,'g','p'
4.11,'g','p'
4.27,'g','p'
4.97,'g','p'
5.03,'g','p'
5.25,'g','p'
3.64,'g','p'
5.06,'g','p'
5.46,'g','p'
5.09,'g','p'
4.06,'g','p'
4.1,'g','p'
4.55,'g','p'
4.21,'g','p'
4.76,'g','p'
4.46,'g','p'
4.73,'g','p'
5.26,'g','p'
3.37,'g','p'
4.48,'g','p'
4.46,'g','p'
3.64,'g','p'
4.31,'g','p'
4.46,'g','p'
4.69,'g','p'
5.3,'g','p'
4.49,'g','p'
4.14,'g','p'
4.75,'g','p'
4.16,'g','p'
4.45,'g','p'
4.02,'g','p'
4.61,'g','p'
4.49,'g','p'
4.84,'g','p'
4.28,'g','p'
4.79,'g','p'
5.15,'g','p'
5.17,'g','p'
5.27,'g','p'
4.07,'g','p'
5.03,'g','p'
3.67,'g','p'
4.83,'g','p'
4.05,'g','p'
4.99,'g','p'
4.39,'g','p'
4.33,'g','p'
4.64,'g','p'
4.58,'g','p'
4.86,'g','p'
4.4,'g','p'
5.55,'g','p'
4.12,'g','p'
3.41,'g','p'
3.91,'g','p'
4.73,'g','p'
5.1,'g','p'
4.81,'g','p'
5,'g','p'
4.87,'g','p'
4.56,'g','p'
4.15,'g','p'
4.33,'g','p'
4,'g','p'
5.19,'g','p'
4.54,'g','p'
4.69,'g','p'
3.45,'g','p'
4.43,'g','p'
4.71,'g','p'
5.02,'g','p'
4.29,'g','p'
5.28,'g','p'
4.46,'g','p'
4.41,'g','p'
3.6,'g','p'
3.82,'g','p'
3.98,'g','p'
3.83,'g','p'
4.1,'g','p'
5.29,'g','p'
5.12,'g','p'
4.59,'g','p'
3.52,'g','p'
3.97,'g','p'
4.28,'g','p'
4.39,'g','p'
4.05,'g','p'
4.32,'g','p'
4.31,'g','p'
3.79,'g','p'
4.66,'g','p'
3.96,'g','p'
5.1,'g','p'
5.3,'g','p'
4.85,'g','p'
5.18,'g','p'
4.68,'g','p'
5.39,'g','p'
4.41,'g','p'
5.11,'g','p'
5.18,'g','p'
3.79,'g','p'
4.52,'g','p'
4.83,'g','p'
4.96,'g','p'
4.07,'g','p'
4.35,'g','p'
4.41,'g','p'
4.06,'g','p'
4.06,'g','p'
4.75,'g','p'
5.2,'g','p'
5.42,'g','p'
5.11,'g','p'
4.76,'g','p'
4.49,'g','p'
4.74,'g','p'
4.82,'g','p'
4.57,'g','p'
5.03,'g','p'
5.06,'g','p'
4.43,'g','p'
4.98,'g','p'
4.93,'g','p'
4.76,'g','p'
4.63,'g','p'
4.62,'g','p'
4.68,'g','p'
4.99,'g','p'
3.47,'g','p'
3.57,'g','p'
4.45,'g','p'
3.75,'g','p'
4.21,'g','p'
4.57,'g','p'
4.74,'g','p'
4.8,'g','p'
5.11,'g','p'
4.46,'g','p'
4.03,'g','p'
4.65,'g','p'
5.16,'g','p'
4.26,'g','p'
4.96,'g','p'
4.55,'g','p'
4.59,'g','p'
3.72,'g','p'
4.34,'g','p'
4.57,'g','p'
4.1,'g','p'
4,'g','p'
4.52,'g','p'
4.66,'g','p'
5.13,'g','p'
5.03,'g','p'
4.8,'g','p'
3.84,'g','p'
3.61,'g','p'
3.2,'g','p'
4.79,'g','p'
5.05,'g','p'
4.77,'g','p'
4.49,'g','p'
4.22,'g','p'
4.86,'g','p'
4.68,'g','p'
5.4,'g','p'
5,'g','p'
4.31,'g','p'
4.23,'g','p'
2.83,'g','p'
4.38,'g','p'
4.41,'g','p'
3.59,'g','p'
4.61,'g','p'
4.77,'g','p'
4.25,'g','p'
4.9,'g','p'
4.97,'g','p'
4.18,'g','p'
4.72,'g','p'
4.34,'g','p'
4.68,'g','p'
4.22,'g','p'
3.54,'g','p'
3.8,'g','p'
4.26,'g','p'
4.42,'g','p'
4.92,'g','p'
4.43,'g','p'
4.93,'g','p'
5.04,'g','p'
4.59,'g','p'
4.75,'g','p'
3.94,'g','p'
4.71,'g','p'
2.57,'h','p'
1.78,'h','p'
2.26,'m','p'
3.04,'m','p'
3.08,'m','p'
3.26,'m','p'
3.09,'h','p'
2.03,'h','p'
2.5,'m','p'
2.22,'m','p'
2.81,'m','p'
2.21,'h','p'
2.07,'m','p'
2.56,'h','p'
2.07,'h','p'
2.44,'h','p'
1.95,'h','p'
1.87,'m','p'
2.27,'h','p'
2.8,'h','p'
2.4,'m','p'
2.46,'m','p'
0.78,'h','p'
2.51,'m','p'
2.62,'h','p'
2.47,'m','p'
2.71,'m','p'
2.23,'m','p'
2.71,'h','p'
2.94,'m','p'
1.81,'h','p'
2.83,'m','p'
3.06,'m','p'
2.14,'h','p'
2.24,'h','p'
2.07,'h','p'
2.57,'h','p'
2.61,'h','p'
2.38,'h','p'
2.97,'h','p'
2.18,'h','p'
2.75,'m','p'
2.58,'h','p'
3.13,'h','p'
2.17,'m','p'
2.14,'h','p'
2.78,'m','p'
2.63,'m','p'
2.36,'m','p'
2.48,'h','p'
2.57,'h','p'
2.74,'h','p'
3.1,'h','p'
3.27,'m','p'
2.69,'h','p'
2.82,'m','p'
2.78,'m','p'
2.08,'h','p'
2.81,'m','p'
2.81,'m','p'
2.86,'h','p'
1.79,'h','p'
2.2,'m','p'
2.58,'h','p'
2.37,'m','p'
1.57,'m','p'
2.58,'h','p'
2.17,'h','p'
2.03,'m','p'
2.54,'m','p'
1.87,'m','p'
2.97,'h','p'
3.16,'h','p'
2.59,'m','p'
1.89,'m','p'
1.51,'h','p'
2.2,'h','p'
2.31,'h','p'
2.33,'m','p'
2.2,'m','p'
3.34,'m','p'
3.44,'h','p'
2.61,'m','p'
2.61,'h','p'
2.37,'h','p'
3.04,'h','p'
2.45,'h','p'
2.59,'h','p'
2.09,'h','p'
4.04,'m','p'
2.4,'h','p'
2.71,'m','p'
2.17,'h','p'
2.51,'h','p'
2.91,'m','p'
1.68,'h','p'
2.63,'h','p'
3.08,'h','p'
3.14,'m','p'
2.14,'h','p'
2.07,'h','p'
1.99,'m','p'
2.4,'m','p'
3.14,'h','p'
2.07,'m','p'
2.42,'h','p'
3.33,'h','p'
2.24,'h','p'
2.56,'h','p'
2.35,'m','p'
3.7,'m','p'
3.13,'h','p'
3.14,'h','p'
2.64,'h','p'
2.88,'m','p'
2.8,'h','p'
1.94,'m','p'
2.88,'m','p'
2.68,'m','p'
1.86,'h','p'
2.78,'m','p'
2.27,'m','p'
3.08,'h','p'
1.71,'m','p'
2.42,'m','p'
1.55,'h','p'
2.16,'m','p'
2.53,'h','p'
3.06,'m','p'
1.98,'m','p'
2.3,'m','p'
3.12,'m','p'
2.61,'m','p'
2.94,'h','p'
2.28,'m','p'
2.99,'h','p'
2.78,'m','p'
1.8,'h','p'
2.13,'h','p'
2.79,'m','p'
2.32,'h','p'
2.52,'h','p'
2.07,'h','p'
1.81,'m','p'
1.66,'h','p'
2.31,'m','p'
2.4,'h','p'
2.51,'h','p'
2.42,'h','p'
2.9,'h','p'
2.61,'h','p'
2.41,'m','p'
2.5,'m','p'
1.51,'m','p'
3.16,'h','p'
1.26,'h','p'
2.21,'h','p'
2.37,'m','p'
2.87,'h','p'
2.29,'h','p'
2.73,'h','p'
2.91,'h','p'
2.16,'m','p'
1.64,'m','p'
3.43,'m','p'
2.01,'h','p'
1.92,'m','p'
2.64,'m','p'
2.64,'h','p'
2.6,'h','p'
2.77,'m','p'
2.55,'m','p'
2.66,'m','p'
2.12,'m','p'
2.13,'m','p'
2.08,'m','p'
2.78,'h','p'
2.51,'m','p'
2.15,'h','p'
2.59,'h','p'
3.51,'m','p'
2.92,'m','p'
2.67,'h','p'
2.57,'h','p'
2.9,'h','p'
3.01,'h','p'
2.38,'h','p'
3.2,'m','p'
2.15,'h','p'
2.69,'h','p'
2.18,'h','p'
1.83,'h','p'
2.46,'m','p'
1.84,'h','p'
2.56,'h','p'
2.87,'h','p'
2.61,'h','p'
3.16,'h','p'
2.22,'h','p'
3.59,'m','p'
2.72,'m','p'
3.28,'h','p'
2.38,'h','p'
1.86,'m','p'
1.15,'m','p'
2.33,'m','p'
1.97,'h','p'
3.23,'m','p'
2.08,'h','p'
2.13,'h','p'
2.22,'h','p'
2.57,'m','p'
3.24,'m','p'
2.68,'h','p'
2.74,'h','p'
1.82,'h','p'
2.48,'m','p'
2.05,'h','p'
2.87,'h','p'
2.46,'h','p'
2.8,'h','p'
2.87,'h','p'
1.27,'m','p'
2.99,'h','p'
2.55,'m','p'
2.56,'h','p'
3.08,'h','p'
2.36,'h','p'
2.23,'h','p'
2.11,'h','p'
2.11,'m','p'
2.84,'m','p'
2.96,'m','p'
3.02,'m','p'
2.39,'m','p'
2.78,'h','p'
2.26,'h','p'
2.36,'m','p'
2.64,'h','p'
2,'m','p'
2.23,'h','p'
2.09,'h','p'
2.13,'m','p'
3.13,'m','p'
2.25,'m','p'
1.74,'h','p'
1.84,'m','p'
2.68,'h','p'
2.15,'m','p'
1.81,'h','p'
3.1,'h','p'
2.26,'m','p'
2.7,'h','p'
2.68,'h','p'
2.52,'h','p'
2.29,'h','p'
2.03,'h','p'
2.62,'m','p'
2.16,'h','p'
3,'m','p'
2.65,'h','p'
2.02,'m','p'
2.65,'m','p'
2.91,'m','p'
2.57,'m','p'
2.61,'h','p'
2.43,'m','p'
2.08,'h','p'
3.03,'h','p'
1.92,'h','p'
3.27,'m','p'
3.3,'m','p'
3.76,'h','p'
2.74,'m','p'
2.99,'h','p'
2.31,'h','p'
2.82,'m','p'
2.63,'m','p'
2.87,'h','p'
2.77,'m','p'
2.21,'h','p'
2.65,'m','p'
1.77,'h','p'
2.46,'h','p'
2.44,'m','p'
2.85,'m','p'
2.42,'h','p'
2.52,'h','p'
2.34,'h','p'
2.63,'h','p'
1.62,'m','p'
2.53,'m','p'
2.41,'m','p'
1.8,'h','p'
3,'h','p'
2.11,'h','p'
2.99,'h','p'
3.75,'h','p'
2.81,'m','p'
2.27,'h','p'
2.59,'h','p'
3.51,'m','p'
2.01,'m','p'
1.95,'h','p'
2.45,'m','p'
2.5,'h','p'
2.25,'m','p'
3.01,'m','p'
2.55,'m','p'
1.64,'m','p'
2.51,'h','p'
1.5,'m','p'
3.37,'m','p'
2.44,'h','p'
2.79,'h','p'
1.71,'m','p'
2.73,'m','p'
3.45,'m','p'
2.42,'m','p'
2.99,'m','p'
2.92,'m','p'
2.76,'m','p'
2.12,'m','p'
2.87,'m','p'
1.51,'h','p'
2.69,'m','p'
2.66,'m','p'
2.57,'m','p'
2.77,'h','p'
2.05,'h','p'
2.83,'h','p'
3.03,'m','p'
1.78,'m','p'
2.64,'h','p'
2.56,'m','p'
2.65,'m','p'
2.29,'m','p'
2.04,'h','p'
1.83,'h','p'
2.19,'h','p'
2.51,'h','p'
3.33,'m','p'
2.95,'m','p'
2.3,'m','p'
2.16,'m','p'
2.57,'m','p'
2.61,'h','p'
2.46,'m','p'
2.69,'h','p'
2.52,'m','p'
2.76,'h','p'
3.27,'m','p'
3.14,'h','p'
6.13,'m','p'
5.38,'m','p'
4.52,'g','p'
6.01,'g','p'
5.25,'g','p'
5.82,'g','p'
6.19,'g','p'
4.97,'m','p'
6.43,'g','p'
5.55,'g','p'
5.49,'g','p'
4.97,'m','p'
5.33,'g','p'
5.67,'m','p'
6.66,'g','p'
4.9,'m','p'
5.53,'m','p'
4.61,'m','p'
5.04,'m','p'
5.75,'g','p'
5.54,'g','p'
4.93,'g','p'
5.29,'g','p'
5.29,'m','p'
4.74,'g','p'
5.27,'g','p'
5.63,'g','p'
5.67,'g','p'
5.43,'g','p'
6.08,'m','p'
5.61,'m','p'
5.49,'g','p'
4.49,'m','p'
6.09,'m','p'
5.15,'g','p'
5.73,'g','p'
5.45,'m','p'
5.8,'g','p'
5.4,'g','p'
5.39,'g','p'
5.74,'m','p'
6.44,'m','p'
5.37,'m','p'
4.7,'m','p'
5.51,'g','p'
5.38,'g','p'
5.17,'g','p'
5.2,'g','p'
5.22,'g','p'
5.17,'m','p'
4.57,'g','p'
6.2,'m','p'
6.12,'g','p'
4.93,'g','p'
5.52,'g','p'
5.08,'m','p'
6.07,'m','p'
5.29,'m','p'
5.49,'m','p'
5.17,'g','p'
6.23,'g','p'
4.5,'m','p'
5.92,'g','p'
4.73,'g','p'
5.15,'g','p'
5.14,'g','p'
5.29,'m','p'
5.27,'m','p'
5.28,'m','p'
5.42,'g','p'
6.13,'m','p'
6.12,'m','p'
5.75,'g','p'
4.84,'m','p'
4.89,'m','p'
6.1,'g','p'
5.51,'m','p'
5.63,'g','p'
5.59,'g','p'
5.52,'m','p'
6.39,'m','p'
4.97,'g','p'
5.62,'g','p'
5.89,'g','p'
5.47,'m','p'
4.65,'m','p'
5.9,'m','p'
5.4,'m','p'
5.97,'g','p'
5.23,'m','p'
5.43,'g','p'
5,'m','p'
6,'g','p'
5.03,'g','p'
4.97,'m','p'
5.61,'m','p'
5.43,'m','p'
6.03,'g','p'
6.08,'m','p'
5.45,'g','p'
4.91,'m','p'
4.6,'g','p'
5.31,'m','p'
5.23,'m','p'
5.98,'m','p'
5.8,'g','p'
5.24,'m','p'
4.97,'g','p'
5.13,'m','p'
5.78,'g','p'
5.1,'g','p'
5.4,'g','p'
5.92,'g','p'
5.98,'m','p'
5.43,'m','p'
5.55,'m','p'
6.01,'g','p'
5.59,'g','p'
4.77,'g','p'
5.98,'m','p'
5.3,'m','p'
5.2,'m','p'
5.57,'g','p'
5.03,'m','p'
5.84,'m','p'
5.68,'m','p'
5.8,'m','p'
5.21,'g','p'
5.72,'m','p'
5.22,'g','p'
5.07,'g','p'
5.76,'m','p'
5.89,'g','p'
4.98,'g','p'
5.81,'m','p'
5.56,'g','p'
5.26,'m','p'
5.6,'m','p'
5.86,'m','p'
5.1,'m','p'
5.35,'g','p'
4.95,'g','p'
5.81,'m','p'
5.31,'g','p'
5.76,'m','p'
5,'g','p'
6.55,'g','p'
6.19,'m','p'
5.4,'g','p'
5.93,'m','p'
5.48,'m','p'
5.68,'g','p'
4.98,'m','p'
5.04,'m','p'
5.49,'m','p'
5.91,'m','p'
5.5,'m','p'
5.94,'m','p'
5.56,'g','p'
6.16,'m','p'
5.83,'g','p'
6.39,'g','p'
6.06,'m','p'
5.09,'g','p'
5.33,'m','p'
5.47,'m','p'
6.21,'g','p'
5.34,'m','p'
4.9,'g','p'
4.65,'m','p'
6.24,'m','p'
6.45,'g','p'
5.97,'g','p'
6.02,'m','p'
6.21,'m','p'
5.12,'g','p'
5.89,'g','p'
5.76,'g','p'
5.49,'m','p'
4.54,'g','p'
4.82,'m','p'
6.17,'m','p'
5.91,'g','p'
5.48,'g','p'
6.52,'g','p'
5.8,'g','p'
5.84,'g','p'
5.42,'g','p'
5.24,'g','p'
6.01,'m','p'
5.51,'m','p'
6.13,'g','p'
5.45,'g','p'
6.05,'g','p'
5.1,'g','p'
5.46,'g','p'
5.63,'m','p'
6,'m','p'
5.12,'g','p'
5.41,'g','p'
5.75,'g','p'
5.86,'m','p'
6.35,'g','p'
5.79,'m','p'
6.14,'m','p'
5.89,'m','p'
5.79,'m','p'
5.21,'g','p'
5.29,'m','p'
5.1,'g','p'
6.37,'g','p'
5.37,'m','p'
5.72,'g','p'
4.98,'g','p'
5.65,'g','p'
4.83,'m','p'
6.08,'m','p'
5.07,'m','p'
4.67,'g','p'
5.65,'m','p'
6.01,'m','p'
5.55,'m','p'
5.49,'m','p'
5.42,'g','p'
5.61,'g','p'
5.34,'g','p'
4.85,'g','p'
5.27,'g','p'
4.65,'g','p'
4.63,'g','p'
4.74,'m','p'
5.68,'m','p'
5.28,'m','p'
6,'m','p'
5.95,'g','p'
4.68,'m','p'
5.4,'m','p'
5.61,'m','p'
4.76,'m','p'
5.32,'g','p'
4.83,'g','p'
6.17,'m','p'
6,'m','p'
6.3,'m','p'
5.77,'g','p'
5.95,'m','p'
5.29,'g','p'
5.02,'m','p'
5.46,'m','p'
4.99,'m','p'
5.35,'m','p'
5.15,'m','p'
5.57,'g','p'
5.46,'g','p'
5.56,'g','p'
5.43,'m','p'
5.7,'m','p'
4.9,'m','p'
5.43,'g','p'
5.08,'g','p'
4.79,'m','p'
5.98,'m','p'
5.78,'g','p'
5.63,'g','p'
5.61,'g','p'
4.96,'g','p'
5.29,'g','p'
5.17,'g','p'
5.84,'g','p'
5.1,'g','p'
4.96,'m','p'
6.05,'g','p'
5.59,'g','p'
6.11,'m','p'
5.12,'g','p'
4.78,'g','p'
5.53,'g','p'
5.48,'g','p'
5.78,'g','p'
5.63,'g','p'
5.5,'m','p'
6.19,'g','p'
5.56,'g','p'
6.01,'g','p'
5.62,'m','p'
5.9,'g','p'
4.94,'m','p'
5.56,'g','p'
5.08,'m','p'
5.29,'g','p'
5.26,'m','p'
5.25,'g','p'
5.72,'m','p'
5.58,'g','p'
5.19,'g','p'
5.33,'g','p'
6.05,'g','p'
5.06,'g','p'
5.44,'g','p'
5.73,'g','p'
5.64,'m','p'
5.6,'g','p'
5.58,'g','p'
4.88,'m','p'
5.18,'m','p'
5.9,'g','p'
4.93,'m','p'
5.08,'m','p'
4.65,'m','p'
4.85,'m','p'
5,'m','p'
4.69,'g','p'
4.95,'m','p'
6.02,'g','p'
5.12,'g','p'
6.04,'m','p'
5,'g','p'
5,'g','p'
5.15,'m','p'
6.34,'m','p'
4.21,'m','p'
5.63,'m','p'
4.55,'g','p'
5.14,'g','p'
6.15,'g','p'
5.3,'m','p'
5.22,'m','p'
5.82,'g','p'
5.77,'m','p'
5.24,'g','p'
5.03,'m','p'
5.29,'g','p'
6.21,'m','p'
5.73,'g','p'
6,'g','p'
6.15,'g','p'
5.07,'m','p'
5.66,'g','p'
6.22,'g','p'
6.25,'m','p'
5.63,'m','p'
6.02,'m','p'
4.94,'g','p'
5.74,'g','p'
5.53,'g','p'
5.6,'g','p'
4.64,'g','p'
5.5,'m','p'
6.16,'m','p'
5.26,'g','p'
5.22,'g','p'
5.55,'g','p'
6.24,'g','p'
7.72,'m','e'
6.69,'d','e'
7.22,'m','e'
5.83,'m','e'
6.73,'g','e'
5.52,'g','e'
6.7,'d','e'
6.44,'d','e'
4.91,'g','e'
4.87,'d','e'
5.9,'m','e'
6.66,'d','e'
8.27,'d','e'
6.87,'m','e'
5.98,'m','e'
6.14,'d','e'
6.41,'m','e'
7.72,'d','e'
5.21,'g','e'
8.96,'m','e'
6.1,'g','e'
8.39,'g','e'
7.57,'m','e'
5.13,'m','e'
9.48,'m','e'
7.44,'d','e'
5.88,'d','e'
5.82,'m','e'
8,'g','e'
5.89,'g','e'
6.23,'g','e'
7.22,'m','e'
5.28,'d','e'
6.97,'d','e'
5.02,'g','e'
6.46,'g','e'
6.31,'d','e'
7.08,'d','e'
6.54,'d','e'
5.71,'m','e'
6.66,'m','e'
5.22,'d','e'
5.52,'g','e'
8.27,'d','e'
5.29,'g','e'
7.36,'d','e'
8.7,'g','e'
6.15,'g','e'
7.77,'d','e'
5.95,'d','e'
7.47,'d','e'
8.18,'d','e'
7.21,'g','e'
7.27,'d','e'
7.9,'d','e'
7.32,'d','e'
5.8,'m','e'
6.1,'g','e'
6.98,'g','e'
7.89,'m','e'
5.55,'d','e'
4.75,'m','e'
6.23,'g','e'
6.11,'m','e'
5.63,'m','e'
4.8,'g','e'
5.14,'d','e'
6.4,'m','e'
6.09,'d','e'
7.49,'g','e'
8.14,'m','e'
5.3,'m','e'
6.33,'d','e'
7.07,'d','e'
5.5,'d','e'
6.31,'d','e'
7.1,'d','e'
5.37,'m','e'
6.4,'d','e'
7.28,'d','e'
7.9,'g','e'
6.62,'g','e'
7.73,'m','e'
6.63,'g','e'
5.09,'g','e'
7.26,'d','e'
7.71,'g','e'
4.52,'g','e'
5.28,'d','e'
6.37,'g','e'
8.24,'g','e'
8.01,'d','e'
7.54,'m','e'
6.99,'g','e'
7.46,'d','e'
4.4,'g','e'
6.61,'g','e'
6.51,'d','e'
6.7,'d','e'
6.18,'m','e'
5.51,'d','e'
3.79,'g','e'
9.46,'d','e'
5.65,'d','e'
5.31,'d','e'
6.1,'d','e'
7.05,'d','e'
5.31,'m','e'
7.26,'d','e'
8.61,'d','e'
4.87,'d','e'
5.66,'d','e'
8.3,'g','e'
7.03,'g','e'
6.1,'g','e'
6.74,'m','e'
6.66,'g','e'
7.19,'g','e'
8.54,'d','e'
6.37,'m','e'
5.79,'m','e'
6.26,'d','e'
5.82,'g','e'
3.72,'g','e'
6.5,'m','e'
7.86,'m','e'
8.44,'m','e'
6.48,'m','e'
6.64,'g','e'
4.09,'d','e'
6.42,'m','e'
8.47,'d','e'
7.18,'m','e'
5.47,'d','e'
7.03,'g','e'
6.28,'d','e'
5.56,'m','e'
6.32,'g','e'
5.31,'g','e'
6.53,'m','e'
5.65,'d','e'
7.04,'d','e'
6.36,'g','e'
6.74,'m','e'
6.77,'m','e'
6.98,'m','e'
6.95,'m','e'
5.31,'m','e'
7.25,'d','e'
4.31,'g','e'
8.06,'m','e'
6.1,'g','e'
7.29,'g','e'
4.58,'m','e'
7.85,'d','e'
6.68,'d','e'
6.52,'d','e'
8.44,'g','e'
5.09,'d','e'
6.5,'g','e'
6.47,'m','e'
6.81,'g','e'
8.19,'g','e'
6.99,'d','e'
5.89,'d','e'
5.62,'m','e'
6.99,'g','e'
7.4,'d','e'
5.49,'d','e'
5.38,'m','e'
5.18,'m','e'
5.75,'g','e'
7.81,'d','e'
6.35,'g','e'
5.88,'d','e'
7.18,'d','e'
7.75,'d','e'
5.86,'g','e'
7.92,'g','e'
4.47,'m','e'
7.6,'m','e'
7.26,'g','e'
6.66,'d','e'
5.94,'d','e'
5.09,'d','e'
6.13,'g','e'
7.36,'m','e'
5.86,'g','e'
7.49,'d','e'
5.99,'g','e'
7,'d','e'
6.98,'g','e'
5.32,'d','e'
5.63,'d','e'
7.83,'g','e'
6.06,'m','e'
4.46,'g','e'
6.18,'m','e'
6.86,'m','e'
6.88,'d','e'
7.26,'d','e'
5.49,'g','e'
4.78,'m','e'
6.22,'g','e'
7.64,'m','e'
5.8,'m','e'
7.03,'d','e'
7.11,'g','e'
8.46,'g','e'
7.25,'d','e'
5.41,'d','e'
6.35,'g','e'
9.4,'d','e'
5.86,'d','e'
4.09,'g','e'
7.1,'g','e'
6.26,'d','e'
7.08,'m','e'
7.28,'d','e'
7.58,'g','e'
7,'m','e'
5.19,'d','e'
6.92,'g','e'
6.47,'m','e'
5.93,'g','e'
7.28,'d','e'
6.77,'d','e'
6.38,'d','e'
7.27,'m','e'
6.89,'d','e'
4.72,'m','e'
4.55,'g','e'
4.93,'d','e'
7.68,'d','e'
5.57,'g','e'
6.65,'g','e'
7.38,'d','e'
5.38,'g','e'
7.83,'d','e'
7.78,'m','e'
5.93,'d','e'
6.21,'d','e'
6.97,'m','e'
5.32,'m','e'
4.71,'g','e'
5.79,'m','e'
7.52,'d','e'
7.75,'g','e'
5.52,'m','e'
5.64,'m','e'
6.1,'d','e'
5.04,'m','e'
6.32,'d','e'
5.16,'g','e'
7.18,'g','e'
8.98,'d','e'
5.62,'g','e'
4.36,'g','e'
5.56,'d','e'
7.59,'m','e'
4.43,'g','e'
5.72,'d','e'
5.83,'g','e'
7.68,'g','e'
5,'d','e'
6.76,'d','e'
6.99,'d','e'
5.99,'g','e'
6.31,'m','e'
5.31,'g','e'
4.18,'d','e'
6.3,'g','e'
7.02,'d','e'
5.52,'m','e'
7.05,'m','e'
7.44,'d','e'
6.05,'m','e'
6.31,'g','e'
6.41,'m','e'
8.69,'m','e'
6.69,'d','e'
3.7,'m','e'
7.78,'g','e'
7.39,'m','e'
7.94,'m','e'
7.3,'m','e'
5.45,'m','e'
5.31,'d','e'
5.5,'d','e'
8.82,'m','e'
7.31,'d','e'
5.07,'m','e'
6.27,'m','e'
6.51,'m','e'
6.31,'m','e'
5.62,'d','e'
6.5,'m','e'
5.19,'m','e'
4.32,'g','e'
5.19,'d','e'
6.85,'g','e'
4.73,'g','e'
5.32,'d','e'
6.84,'g','e'
7.64,'m','e'
6.97,'d','e'
7.37,'d','e'
5.55,'m','e'
7.09,'m','e'
7.04,'d','e'
5.65,'d','e'
6.96,'m','e'
6.21,'d','e'
6.08,'d','e'
6.56,'m','e'
6.86,'m','e'
6.74,'g','e'
5.46,'g','e'
4.6,'d','e'
8.07,'g','e'
7.68,'m','e'
6.67,'d','e'
4.87,'g','e'
4.87,'d','e'
7.59,'g','e'
6.55,'g','e'
8.63,'g','e'
7.17,'m','e'
4.73,'m','e'
4.33,'m','e'
7.28,'m','e'
5.63,'d','e'
5.24,'m','e'
8.27,'d','e'
5.54,'m','e'
8.26,'d','e'
6.8,'m','e'
6.15,'m','e'
6.22,'d','e'
6.53,'g','e'
4.35,'m','e'
6.93,'m','e'
7.24,'g','e'
7.43,'d','e'
5.53,'d','e'
5.75,'m','e'
5.93,'d','e'
5.79,'d','e'
4.51,'d','e'
3.62,'g','e'
6.34,'g','e'
5.8,'d','e'
5.54,'d','e'
3.27,'g','e'
2.76,'g','e'
3.52,'g','e'
2.93,'g','e'
3.16,'g','e'
3.09,'m','e'
3.05,'m','e'
3.49,'m','e'
3.62,'g','e'
3.21,'g','e'
4.15,'g','e'
3.28,'g','e'
3.76,'g','e'
3.27,'m','e'
2.62,'g','e'
3.38,'g','e'
3.46,'g','e'
3.98,'g','e'
3.45,'m','e'
3.07,'m','e'
4.14,'m','e'
3.09,'m','e'
3.83,'m','e'
3.17,'g','e'
4.19,'g','e'
2.59,'m','e'
3.32,'m','e'
2.75,'g','e'
3.07,'g','e'
2.99,'g','e'
3.5,'m','e'
3.41,'g','e'
3.1,'m','e'
2.66,'m','e'
3.98,'g','e'
3.55,'g','e'
2.39,'m','e'
3.39,'g','e'
3.38,'m','e'
3.78,'g','e'
4.07,'g','e'
3.37,'g','e'
3.61,'g','e'
2.76,'g','e'
4.23,'m','e'
3.84,'m','e'
2.9,'g','e'
3.62,'g','e'
3.04,'g','e'
3.05,'m','e'
3.41,'g','e'
3.14,'g','e'
2.53,'g','e'
3.71,'m','e'
3.78,'g','e'
4.77,'g','e'
4.05,'m','e'
4.01,'g','e'
4.16,'g','e'
3.41,'g','e'
3.95,'m','e'
3.42,'g','e'
3.11,'g','e'
3.75,'g','e'
3.93,'m','e'
3.81,'g','e'
4.21,'m','e'
2.47,'m','e'
3.29,'m','e'
4.52,'m','e'
4.23,'g','e'
3.72,'g','e'
3.29,'g','e'
4.13,'m','e'
3.32,'m','e'
3.73,'m','e'
3.63,'g','e'
3.65,'g','e'
3.02,'m','e'
2.47,'g','e'
3.45,'g','e'
4.24,'m','e'
3.23,'g','e'
2.42,'m','e'
3.45,'m','e'
2.69,'g','e'
2.98,'m','e'
3.5,'m','e'
2.71,'g','e'
3.55,'g','e'
3.07,'g','e'
3.16,'m','e'
3.28,'g','e'
2.63,'g','e'
3.19,'g','e'
2.53,'g','e'
2.74,'m','e'
3.25,'g','e'
2.57,'g','e'
3.14,'g','e'
3.58,'g','e'
3.35,'g','e'
3.38,'m','e'
3.34,'m','e'
3.22,'m','e'
3.01,'g','e'
2.42,'m','e'
3.1,'g','e'
3.75,'g','e'
4.54,'m','e'
2.48,'g','e'
3.27,'g','e'
3.34,'g','e'
3.44,'m','e'
3.09,'m','e'
3.29,'m','e'
3,'m','e'
4,'m','e'
3.61,'g','e'
3.29,'m','e'
2.7,'m','e'
3.33,'m','e'
3.12,'m','e'
3.28,'m','e'
4.04,'g','e'
4.12,'m','e'
4.57,'g','e'
3.92,'g','e'
4.02,'m','e'
4.18,'m','e'
3.4,'m','e'
3.28,'g','e'
3.14,'m','e'
4.32,'m','e'
4.31,'g','e'
3.45,'g','e'
4.02,'g','e'
3.23,'m','e'
2.88,'m','e'
3.62,'g','e'
3.88,'g','e'
3.03,'m','e'
3.48,'g','e'
3.36,'g','e'
3.38,'g','e'
3.22,'g','e'
3.46,'g','e'
3.17,'m','e'
3.8,'g','e'
2.7,'g','e'
3.93,'g','e'
3.74,'g','e'
3.09,'g','e'
3.9,'g','e'
3.25,'g','e'
3.72,'g','e'
4.09,'m','e'
3.98,'m','e'
2.98,'g','e'
4.03,'g','e'
4.38,'g','e'
3.69,'m','e'
3.73,'m','e'
3.86,'m','e'
2.86,'m','e'
3.54,'m','e'
3.8,'g','e'
3.59,'m','e'
3.1,'g','e'
3,'g','e'
3.42,'g','e'
3.07,'g','e'
4.26,'g','e'
3.12,'g','e'
3.21,'g','e'
3.74,'m','e'
3.52,'m','e'
3.11,'m','e'
3.19,'m','e'
2.17,'m','e'
4.05,'m','e'
3.41,'g','e'
3.56,'g','e'
3.37,'m','e'
3.31,'m','e'
3.16,'m','e'
3.4,'m','e'
3.51,'m','e'
4.2,'m','e'
3.45,'g','e'
3.75,'g','e'
3.61,'g','e'
3.75,'m','e'
3.89,'m','e'
2.61,'m','e'
2.41,'g','e'
2.91,'g','e'
3.54,'g','e'
4.09,'g','e'
3.01,'g','e'
2.93,'m','e'
3.9,'g','e'
3.62,'g','e'
4.3,'m','e'
3.76,'m','e'
2.8,'m','e'
2.81,'m','e'
3.16,'g','e'
3.44,'m','e'
3.4,'g','e'
3.48,'m','e'
4.36,'g','e'
3.05,'m','e'
2.83,'g','e'
2.72,'m','e'
4.55,'g','e'
3.73,'g','e'
3.64,'g','e'
4.06,'g','e'
2.72,'g','e'
2.93,'g','e'
3.13,'m','e'
4.05,'g','e'
3.45,'g','e'
3.58,'g','e'
2.84,'g','e'
3.91,'g','e'
2.73,'m','e'
3.14,'g','e'
2.3,'m','e'
3.25,'g','e'
3.43,'g','e'
4.37,'m','e'
3.56,'g','e'
3.66,'g','e'
4.61,'m','e'
3.4,'g','e'
3.55,'m','e'
3.16,'m','e'
3.08,'g','e'
4.14,'g','e'
4.23,'m','e'
2.59,'g','e'
3.64,'g','e'
3.77,'g','e'
3.73,'g','e'
3.77,'m','e'
2.99,'m','e'
3.72,'g','e'
3.68,'g','e'
3.62,'m','e'
3.77,'m','e'
2.74,'m','e'
3.24,'g','e'
3.35,'g','e'
3.11,'m','e'
3.04,'g','e'
3.98,'m','e'
3.84,'g','e'
3.84,'m','e'
3.22,'m','e'
4.04,'m','e'
2.81,'m','e'
3.84,'m','e'
2.8,'g','e'
3.42,'m','e'
3.44,'m','e'
3.84,'m','e'
2.74,'m','e'
3.34,'m','e'
3.62,'g','e'
3.47,'g','e'
4.89,'g','e'
2.4,'m','e'
3.32,'m','e'
3.57,'g','e'
2.77,'m','e'
4.02,'g','e'
3.85,'m','e'
4.74,'m','e'
3.83,'g','e'
4.31,'g','e'
4.54,'g','e'
3.64,'g','e'
3.54,'m','e'
4.09,'g','e'
2.99,'g','e'
3.75,'g','e'
3.73,'g','e'
2.59,'m','e'
3.27,'g','e'
3.4,'m','e'
3.66,'g','e'
3.51,'m','e'
3.32,'m','e'
4.07,'g','e'
2.56,'m','e'
3.72,'m','e'
3.81,'g','e'
3.23,'m','e'
4.28,'m','e'
3.6,'m','e'
3.67,'g','e'
3.18,'g','e'
3.02,'m','e'
3.01,'g','e'
3.21,'g','e'
3.2,'m','e'
3.23,'g','e'
3.87,'m','e'
3.54,'g','e'
4.47,'m','e'
3.65,'g','e'
3.69,'g','e'
3.83,'g','e'
4.36,'g','e'
3.46,'m','e'
4.76,'m','e'
3.53,'g','e'
4.3,'m','e'
3.12,'g','e'
3.18,'m','e'
3,'g','e'
3.22,'g','e'
2.92,'m','e'
2.76,'g','e'
3.79,'m','e'
3.17,'g','e'
3.62,'m','e'
3.18,'m','e'
4.22,'g','e'
3.28,'g','e'
4.47,'m','e'
2.61,'g','e'
3.24,'m','e'
2.71,'m','e'
3.3,'g','e'
3.28,'m','e'
2.9,'m','e'
3.53,'m','e'
3.5,'m','e'
2.71,'m','e'
3.9,'g','e'
3.44,'g','e'
3.66,'m','e'
3.69,'m','e'
2.88,'m','e'
2.89,'g','e'
4.06,'g','e'
3.07,'m','e'
3.84,'g','e'
2.86,'g','e'
3.1,'m','e'
3.13,'d','p'
2.89,'m','p'
2.57,'d','p'
3.02,'d','p'
2.99,'g','p'
2.62,'g','p'
2.91,'m','p'
2.85,'m','p'
3.4,'m','p'
3.19,'d','p'
3.34,'d','p'
2.71,'d','p'
2.53,'d','p'
3.38,'d','p'
2.54,'m','p'
2.87,'m','p'
1.82,'m','p'
3.32,'m','p'
3.2,'m','p'
3.25,'d','p'
2.67,'g','p'
3.29,'m','p'
3.03,'m','p'
2.6,'d','p'
2.67,'g','p'
3.05,'m','p'
2.91,'g','p'
3.02,'m','p'
2.81,'m','p'
2.82,'g','p'
3.51,'g','p'
3.09,'m','p'
2.79,'d','p'
3.13,'d','p'
3.37,'d','p'
2.67,'g','p'
3.39,'d','p'
2.73,'g','p'
2.66,'m','p'
2.95,'d','p'
3.11,'m','p'
2.62,'m','p'
3.02,'g','p'
3.41,'d','p'
3.02,'d','p'
3.43,'d','p'
3.21,'m','p'
3.12,'m','p'
3.15,'g','p'
3.01,'g','p'
3.06,'g','p'
3.35,'m','p'
2.65,'m','p'
3.09,'g','p'
3,'d','p'
3.49,'m','p'
3.14,'d','p'
2.84,'g','p'
2.87,'d','p'
2.94,'g','p'
2.98,'d','p'
3.37,'d','p'
2.87,'d','p'
2.61,'d','p'
2.99,'d','p'
3.25,'d','p'
2.92,'m','p'
3.38,'m','p'
2.93,'g','p'
2.32,'m','p'
3.36,'d','p'
2.97,'m','p'
2.36,'g','p'
2.76,'m','p'
3.39,'m','p'
3.47,'g','p'
2.61,'d','p'
3.21,'m','p'
4.18,'g','p'
3.25,'m','p'
2.58,'m','p'
2.88,'d','p'
3.56,'g','p'
2.77,'m','p'
3.25,'m','p'
2.95,'d','p'
3.44,'g','p'
2.89,'m','p'
3.07,'d','p'
2.96,'g','p'
3.3,'g','p'
3.21,'d','p'
2.94,'g','p'
2.87,'g','p'
3.07,'m','p'
3.09,'d','p'
2.79,'g','p'
2.9,'d','p'
2.73,'d','p'
2.61,'d','p'
2.98,'m','p'
3.13,'m','p'
3.22,'d','p'
2.88,'d','p'
3.2,'m','p'
3.43,'g','p'
3.67,'g','p'
2.69,'m','p'
3.29,'d','p'
2.78,'g','p'
3.73,'g','p'
2.94,'m','p'
2.74,'d','p'
3.12,'d','p'
2.96,'d','p'
2.59,'m','p'
2.81,'d','p'
2.67,'d','p'
3.33,'g','p'
2.74,'d','p'
2.63,'m','p'
3.16,'m','p'
2.63,'g','p'
2.91,'d','p'
3.1,'g','p'
2.48,'d','p'
2.69,'g','p'
2.41,'d','p'
2.95,'d','p'
2.78,'g','p'
2.87,'d','p'
2.57,'d','p'
3.01,'m','p'
2.45,'d','p'
3.03,'d','p'
2.79,'d','p'
2.91,'m','p'
2.93,'m','p'
3.13,'m','p'
3.13,'d','p'
2.96,'g','p'
2.98,'m','p'
2.35,'m','p'
2.44,'g','p'
3.46,'d','p'
3.17,'d','p'
3.02,'g','p'
3.16,'d','p'
3.1,'g','p'
2.56,'m','p'
3.19,'m','p'
2.71,'m','p'
3.08,'g','p'
3.39,'d','p'
3.05,'g','p'
3.43,'m','p'
3.17,'m','p'
2.25,'g','p'
3.31,'m','p'
3.15,'g','p'
2.88,'d','p'
2.85,'d','p'
3.11,'d','p'
3.01,'g','p'
3.28,'d','p'
3.29,'d','p'
2.44,'d','p'
3.45,'g','p'
2.88,'d','p'
2.27,'g','p'
2.76,'m','p'
2.48,'g','p'
2.46,'g','p'
3.13,'m','p'
3.4,'d','p'
3.29,'d','p'
3.47,'d','p'
2.69,'g','p'
2.95,'g','p'
3.34,'m','p'
3.21,'m','p'
3.12,'g','p'
2.88,'d','p'
3.35,'d','p'
2.53,'d','p'
2.57,'m','p'
3.05,'d','p'
3.33,'d','p'
3.16,'g','p'
3.1,'m','p'
2.82,'g','p'
3.07,'d','p'
3.37,'m','p'
2.85,'d','p'
2.92,'m','p'
3.46,'m','p'
3.76,'d','p'
3,'d','p'
2.93,'m','p'
2.86,'g','p'
3.28,'m','p'
3.2,'d','p'
3.26,'m','p'
2.71,'m','p'
1.84,'m','p'
2.41,'m','p'
3.18,'d','p'
2.95,'g','p'
3.49,'g','p'
3.01,'g','p'
3.93,'d','p'
3.73,'m','p'
2.78,'m','p'
2.48,'d','p'
3.03,'g','p'
2.69,'m','p'
2.94,'g','p'
2.79,'g','p'
3.58,'g','p'
2.84,'d','p'
2.81,'d','p'
2.72,'d','p'
3.26,'g','p'
2.7,'m','p'
2.74,'d','p'
2.63,'m','p'
2.38,'g','p'
2.84,'m','p'
3.34,'g','p'
2.87,'d','p'
2.69,'m','p'
3.67,'m','p'
3.08,'d','p'
3.09,'d','p'
3.44,'m','p'
3.08,'g','p'
3.33,'m','p'
3.33,'m','p'
2.42,'g','p'
3.36,'g','p'
2.88,'g','p'
3.26,'m','p'
3.2,'m','p'
3.04,'m','p'
2.93,'m','p'
3.35,'d','p'
3.47,'d','p'
3.01,'m','p'
3.03,'g','p'
2.51,'d','p'
3.09,'m','p'
2.99,'d','p'
3.31,'d','p'
3.01,'g','p'
2.53,'m','p'
3.41,'m','p'
3.28,'m','p'
2.58,'g','p'
2.77,'d','p'
2.95,'d','p'
2.89,'m','p'
2.72,'g','p'
3.28,'d','p'
3.05,'g','p'
3.61,'g','p'
2.85,'g','p'
3.2,'d','p'
3.15,'m','p'
3.05,'d','p'
3.11,'m','p'
3.38,'d','p'
3.4,'d','p'
3.25,'g','p'
2.69,'g','p'
2.7,'g','p'
3.39,'g','p'
2.7,'d','p'
2.56,'m','p'
2.64,'g','p'
2.82,'m','p'
3.16,'d','p'
3.62,'d','p'
2.72,'m','p'
2.49,'d','p'
2.92,'m','p'
3.57,'m','p'
3.34,'g','p'
2.26,'m','p'
3.52,'d','p'
3.18,'d','p'
3.48,'g','p'
3.12,'d','p'
3.33,'g','p'
3.11,'d','p'
2.54,'d','p'
3.33,'d','p'
2.78,'d','p'
2.75,'g','p'
2.71,'g','p'
3.12,'m','p'
3.2,'m','p'
2.81,'d','p'
2.71,'g','p'
2.89,'g','p'
3.47,'d','p'
2.79,'d','p'
3.07,'m','p'
3.2,'d','p'
2.99,'d','p'
2.52,'m','p'
2.98,'d','p'
2.86,'d','p'
2.81,'g','p'
2.59,'g','p'
2.82,'g','p'
2.71,'m','p'
2.84,'d','p'
3.02,'g','p'
2.6,'g','p'
3.21,'g','p'
3.47,'g','p'
2.91,'g','p'
3.31,'m','p'
3.12,'m','p'
3.23,'d','p'
3.68,'m','p'
3.41,'g','p'
3.36,'g','p'
2.95,'g','p'
3.16,'g','p'
2.38,'g','p'
3.61,'g','p'
2.95,'d','p'
3.08,'d','p'
3.12,'m','p'
2.82,'d','p'
2.88,'m','p'
3.19,'g','p'
3.06,'g','p'
2.82,'g','p'
2.78,'d','p'
2.78,'d','p'
2.76,'d','p'
2.93,'d','p'
2.73,'m','p'
2.81,'g','p'
3.34,'d','p'
2.93,'d','p'
3.02,'m','p'
3.32,'d','p'
3.03,'g','p'
2.46,'g','p'
3.45,'g','p'
4.43,'d','e'
3.94,'d','e'
3.91,'d','e'
3.81,'d','e'
3.64,'d','e'
3.88,'d','e'
3.96,'d','e'
4.45,'d','e'
4.35,'d','e'
3.3,'d','e'
4.04,'d','e'
4.04,'d','e'
4.04,'d','e'
4.08,'d','e'
4.16,'d','e'
3.92,'d','e'
4.43,'d','e'
4.1,'d','e'
4.13,'d','e'
3.93,'d','e'
3.55,'d','e'
3.69,'d','e'
3.7,'d','e'
4.02,'d','e'
4.33,'d','e'
4.19,'d','e'
4.06,'d','e'
3.9,'d','e'
3.86,'d','e'
4.08,'d','e'
3.76,'d','e'
3.38,'d','e'
4.1,'d','e'
4.27,'d','e'
5.01,'d','e'
3.97,'d','e'
3.98,'d','e'
4.04,'d','e'
3.57,'d','e'
4.13,'d','e'
4.25,'d','e'
3.56,'d','e'
3.6,'d','e'
4.09,'d','e'
3.92,'d','e'
4.2,'d','e'
4.31,'d','e'
3.47,'d','e'
4.04,'d','e'
3.96,'d','e'
3.85,'d','e'
3.97,'d','e'
3.7,'d','e'
3.93,'d','e'
3.66,'d','e'
3.69,'d','e'
4.06,'d','e'
4.03,'d','e'
3.64,'d','e'
4.12,'d','e'
4.6,'d','e'
4.15,'d','e'
4.1,'d','e'
4.32,'d','e'
3.36,'d','e'
4.04,'d','e'
4.36,'d','e'
4.24,'d','e'
4.63,'d','e'
3.48,'d','e'
3.72,'d','e'
4.04,'d','e'
3.92,'d','e'
3.82,'d','e'
4.19,'d','e'
3.32,'d','e'
4.79,'d','e'
3.94,'d','e'
3.91,'d','e'
4.22,'d','e'
4.43,'d','e'
4.32,'d','e'
4.04,'d','e'
4.66,'d','e'
3.88,'d','e'
4.14,'d','e'
3.8,'d','e'
3.96,'d','e'
4,'d','e'
3.85,'d','e'
4.28,'d','e'
4.14,'d','e'
4.04,'d','e'
3.84,'d','e'
4,'d','e'
4,'d','e'
4.39,'d','e'
4.3,'d','e'
3.74,'d','e'
4.25,'d','e'
3.98,'d','e'
3.45,'d','e'
3.58,'d','e'
3.86,'d','e'
4.23,'d','e'
4.02,'d','e'
4.29,'d','e'
4.22,'d','e'
3.9,'d','e'
4.05,'d','e'
4.33,'d','e'
3.94,'d','e'
3.9,'d','e'
3.75,'d','e'
3.77,'d','e'
3.71,'d','e'
4.21,'d','e'
3.96,'d','e'
3.46,'d','e'
4.14,'d','e'
3.8,'d','e'
4.65,'d','e'
3.55,'d','e'
3.92,'d','e'
4.02,'d','e'
4.14,'d','e'
3.95,'d','e'
4.44,'d','e'
4.54,'d','e'
3.98,'d','e'
3.72,'d','e'
4.04,'d','e'
3.53,'d','e'
3.41,'d','e'
3.87,'d','e'
3.85,'d','e'
3.96,'d','e'
4.22,'d','e'
3.19,'d','e'
4.63,'d','e'
4.17,'d','e'
3.4,'d','e'
3.45,'d','e'
4.06,'d','e'
4.34,'d','e'
4.42,'d','e'
3.79,'d','e'
4.39,'d','e'
3.61,'d','e'
4.51,'d','e'
3.71,'d','e'
3.66,'d','e'
3.97,'d','e'
4.44,'d','e'
4.48,'d','e'
3.73,'d','e'
4.56,'d','e'
4.07,'d','e'
4.3,'d','e'
4.29,'d','e'
3.85,'d','e'
4.11,'d','e'
4.21,'d','e'
4.2,'d','e'
4.34,'d','e'
3.86,'d','e'
3.97,'d','e'
3.32,'d','e'
3.66,'d','e'
3.96,'d','e'
3.89,'d','e'
3.96,'d','e'
4.13,'d','e'
3.74,'d','e'
4.07,'d','e'
4.03,'d','e'
3.89,'d','e'
3.83,'d','e'
3.58,'d','e'
3.44,'d','e'
4.25,'d','e'
4.14,'d','e'
4.01,'d','e'
3.69,'d','e'
3.88,'d','e'
4.02,'d','e'
4.19,'d','e'
4.09,'d','e'
4.21,'d','e'
3.92,'d','e'
4.09,'d','e'
4.16,'d','e'
4.24,'d','e'
3.74,'d','e'
3.71,'d','e'
4.61,'d','e'
4.21,'d','e'
4.32,'d','e'
4.36,'d','e'
3.42,'d','e'
4.36,'d','e'
3.58,'d','e'
4.25,'d','e'
4.66,'d','e'
3.84,'d','e'
3.75,'d','e'
3.76,'d','e'
3.82,'d','e'
4.56,'d','e'
4.66,'d','e'
3.81,'d','e'
4.23,'d','e'
3.96,'d','e'
3.53,'d','e'
3.44,'d','e'
4.02,'d','e'
3.73,'d','e'
3.95,'d','e'
3.38,'d','e'
3.47,'d','e'
5.05,'d','e'
4.44,'d','e'
3.67,'d','e'
3.8,'d','e'
3.95,'d','e'
3.87,'d','e'
4.07,'d','e'
4.19,'d','e'
4.16,'d','e'
3.97,'d','e'
3.6,'d','e'
4.09,'d','e'
3.77,'d','e'
3.59,'d','e'
3.91,'d','e'
3.95,'d','e'
3.62,'d','e'
3.81,'d','e'
4.33,'d','e'
4.6,'d','e'
3.95,'d','e'
4.2,'d','e'
4.05,'d','e'
4.22,'d','e'
4.62,'d','e'
3.98,'d','e'
3.47,'d','e'
4.2,'d','e'
3.43,'d','e'
3.24,'d','e'
3.44,'d','e'
4.05,'d','e'
3.92,'d','e'
3.96,'d','e'
4.13,'d','e'
4.22,'d','e'
4.37,'d','e'
3.98,'d','e'
4.64,'d','e'
3.72,'d','e'
4.35,'d','e'
3.78,'d','e'
3.88,'d','e'
4.19,'d','e'
3.88,'d','e'
4.22,'d','e'
4.34,'d','e'
4.07,'d','e'
4.04,'d','e'
3.79,'d','e'
4.06,'d','e'
4.42,'d','e'
3.78,'d','e'
4.34,'d','e'
4.18,'d','e'
3.78,'d','e'
3.5,'d','e'
4.09,'d','e'
4.32,'d','e'
4.51,'d','e'
4.38,'d','e'
3.38,'d','e'
4.26,'d','e'
3.98,'d','e'
4.28,'d','e'
4.36,'d','e'
3.8,'d','e'
4.42,'d','e'
3.96,'d','e'
4.36,'d','e'
3.82,'d','e'
3.9,'d','e'
4.01,'d','e'
3.62,'d','e'
4.16,'d','e'
4.06,'d','e'
3.97,'d','e'
3.71,'d','e'
4.14,'d','e'
3.37,'d','e'
4.18,'d','e'
3.6,'d','e'
4.18,'d','e'
4.05,'d','e'
4.85,'d','e'
4.35,'d','e'
4.79,'d','e'
4.29,'d','e'
4.04,'d','e'
3.38,'d','e'
3.77,'d','e'
3.99,'d','e'
3.97,'d','e'
4.62,'d','e'
4.28,'d','e'
4.17,'d','e'
3.91,'d','e'
3.7,'d','e'
4.54,'d','e'
4.06,'d','e'
3.97,'d','e'
4.39,'d','e'
4.17,'d','e'
4.48,'d','e'
3.69,'d','e'
4.05,'d','e'
3.88,'d','e'
3.85,'d','e'
4.04,'d','e'
3.66,'d','e'
4.23,'d','e'
3.97,'d','e'
3.94,'d','e'
4.31,'d','e'
3.8,'d','e'
4.1,'d','e'
4.42,'d','e'
4.33,'d','e'
3.45,'d','e'
4.58,'d','e'
4.11,'d','e'
3.87,'d','e'
3.93,'d','e'
3.68,'d','e'
4.49,'d','e'
4.42,'d','e'
3.64,'d','e'
4.69,'d','e'
4.57,'d','e'
3.38,'d','e'
3.74,'d','e'
3.54,'d','e'
4.19,'d','e'
7.39,'d','e'
7.67,'d','e'
5.66,'d','e'
6.03,'d','e'
8.1,'d','e'
7.65,'d','e'
6.84,'d','e'
5.54,'d','e'
7.42,'d','e'
8.15,'d','e'
6.98,'d','e'
6.75,'d','e'
6.86,'d','e'
6.85,'d','e'
7.5,'d','e'
7.06,'d','e'
8.13,'d','e'
6.88,'d','e'
7.02,'d','e'
5.7,'d','e'
6.49,'d','e'
6.21,'d','e'
8.1,'d','e'
7.02,'d','e'
7.57,'d','e'
7.19,'d','e'
6.41,'d','e'
6.95,'d','e'
6.55,'d','e'
7.39,'d','e'
8.46,'d','e'
7.65,'d','e'
7.04,'d','e'
6.03,'d','e'
5.2,'d','e'
7.78,'d','e'
7.5,'d','e'
8.01,'d','e'
7.25,'d','e'
9.91,'d','e'
8.46,'d','e'
6.38,'d','e'
8.36,'d','e'
7.75,'d','e'
7.23,'d','e'
8.44,'d','e'
7.34,'d','e'
6.86,'d','e'
9.21,'d','e'
6.85,'d','e'
7.19,'d','e'
7.93,'d','e'
6.35,'d','e'
6.14,'d','e'
4.44,'d','e'
7.09,'d','e'
6.8,'d','e'
7.88,'d','e'
7.5,'d','e'
7.13,'d','e'
5.51,'d','e'
6.67,'d','e'
7.63,'d','e'
6.45,'d','e'
6.35,'d','e'
7.15,'d','e'
8.05,'d','e'
5.64,'d','e'
5.46,'d','e'
5.81,'d','e'
7.26,'d','e'
5.5,'d','e'
5.14,'d','e'
8.16,'d','e'
7.33,'d','e'
6.84,'d','e'
7.69,'d','e'
6.03,'d','e'
5.36,'d','e'
6.76,'d','e'
6.59,'d','e'
6.62,'d','e'
5.67,'d','e'
7.27,'d','e'
7.95,'d','e'
6.09,'d','e'
8.53,'d','e'
6.31,'d','e'
9.1,'d','e'
7.41,'d','e'
8.51,'d','e'
7.84,'d','e'
7.02,'d','e'
7.43,'d','e'
5.31,'d','e'
8.07,'d','e'
6.17,'d','e'
8.33,'d','e'
8.03,'d','e'
6.22,'d','e'
6.46,'d','e'
6.87,'d','e'
7.86,'d','e'
5.8,'d','e'
7.73,'d','e'
6.59,'d','e'
7.71,'d','e'
9.02,'d','e'
5.83,'d','e'
7.02,'d','e'
8.65,'d','e'
4.52,'d','e'
6.27,'d','e'
7.4,'d','e'
6.62,'d','e'
7.17,'d','e'
5.87,'d','e'
6.52,'d','e'
8.99,'d','e'
5.25,'d','e'
6.37,'d','e'
7.77,'d','e'
6.82,'d','e'
7.65,'d','e'
6.51,'d','e'
6.53,'d','e'
5.5,'d','e'
6.6,'d','e'
6.28,'d','e'
5.14,'d','e'
7.44,'d','e'
5.19,'d','e'
5.8,'d','e'
7.63,'d','e'
7.01,'d','e'
6.97,'d','e'
5.67,'d','e'
6.22,'d','e'
6.86,'d','e'
5.79,'d','e'
7.45,'d','e'
7.71,'d','e'
7.28,'d','e'
5.14,'d','e'
7.28,'d','e'
6.38,'d','e'
7.84,'d','e'
7.96,'d','e'
9.02,'d','e'
6.94,'d','e'
6.85,'d','e'
6.28,'d','e'
8.48,'d','e'
7.19,'d','e'
6.1,'d','e'
7.15,'d','e'
5.06,'d','e'
6.27,'d','e'
6.97,'d','e'
7.96,'d','e'
5.95,'d','e'
7.15,'d','e'
9.18,'d','e'
4.84,'d','e'
7.22,'d','e'
6.7,'d','e'
6.55,'d','e'
7.79,'d','e'
6.76,'d','e'
7.14,'d','e'
6.91,'d','e'
7.2,'d','e'
7.37,'d','e'
6.17,'d','e'
7.61,'d','e'
8,'d','e'
6.22,'d','e'
7.35,'d','e'
6.06,'d','e'
7.99,'d','e'
5.3,'d','e'
8.27,'d','e'
8.36,'d','e'
8.06,'d','e'
6.87,'d','e'
7.77,'d','e'
7.91,'d','e'
7.08,'d','e'
8.71,'d','e'
7.16,'d','e'
7.3,'d','e'
6.93,'d','e'
5.26,'d','e'
7.33,'d','e'
6.03,'d','e'
7.69,'d','e'
5.68,'d','e'
7.58,'d','e'
7.37,'d','e'
6.96,'d','e'
6.72,'d','e'
6.02,'d','e'
8.54,'d','e'
6,'d','e'
7.06,'d','e'
7.33,'d','e'
6.37,'d','e'
7.27,'d','e'
6.66,'d','e'
5.24,'d','e'
6.53,'d','e'
6.48,'d','e'
7.64,'d','e'
7.33,'d','e'
7.18,'d','e'
6.37,'d','e'
6.8,'d','e'
7.41,'d','e'
7.34,'d','e'
7.22,'d','e'
6.7,'d','e'
6.83,'d','e'
7.14,'d','e'
7.08,'d','e'
7.88,'d','e'
6.87,'d','e'
7.75,'d','e'
6.82,'d','e'
7.28,'d','e'
6.68,'d','e'
7.73,'d','e'
6.75,'d','e'
6.02,'d','e'
6.2,'d','e'
7.66,'d','e'
5.66,'d','e'
8.77,'d','e'
6.28,'d','e'
7.24,'d','e'
6.35,'d','e'
6.06,'d','e'
5.81,'d','e'
6.73,'d','e'
6.61,'d','e'
7.06,'d','e'
6.68,'d','e'
7.23,'d','e'
7.77,'d','e'
7.55,'d','e'
7.69,'d','e'
6.67,'d','e'
8.14,'d','e'
7.95,'d','e'
7.49,'d','e'
5.56,'d','e'
6.34,'d','e'
8.06,'d','e'
7.17,'d','e'
7.44,'d','e'
7.43,'d','e'
9.02,'d','e'
6.41,'d','e'
9.23,'d','e'
9.18,'d','e'
6.66,'d','e'
6.33,'d','e'
6.51,'d','e'
7.69,'d','e'
8.42,'d','e'
6.63,'d','e'
7.22,'d','e'
8.44,'d','e'
5.52,'d','e'
7.42,'d','e'
7.81,'d','e'
6.1,'d','e'
7.86,'d','e'
7.17,'d','e'
6.86,'d','e'
5.8,'d','e'
7,'d','e'
5.72,'d','e'
6.87,'d','e'
6.8,'d','e'
6.68,'d','e'
7.56,'d','e'
5.5,'d','e'
8.17,'d','e'
5.79,'d','e'
6.18,'d','e'
7.69,'d','e'
6.22,'d','e'
8.82,'d','e'
6.6,'d','e'
8.01,'d','e'
6.52,'d','e'
6.96,'d','e'
9.12,'d','e'
7.81,'d','e'
6.18,'d','e'
7.05,'d','e'
5.51,'d','e'
8.65,'d','e'
6.51,'d','e'
5.84,'d','e'
8.21,'d','e'
8.6,'d','e'
6.84,'d','e'
6.27,'d','e'
8.93,'d','e'
6.27,'d','e'
9.01,'d','e'
8,'d','e'
6.46,'d','e'
7.08,'d','e'
6.96,'d','e'
6.14,'d','e'
5.72,'d','e'
7.03,'d','e'
7.49,'d','e'
7.62,'d','e'
6.42,'d','e'
6.66,'d','e'
6.98,'d','e'
8.38,'d','e'
7.28,'d','e'
7.14,'d','e'
8.71,'d','e'
7.28,'d','e'
7.09,'d','e'
6.29,'d','e'
6.95,'d','e'
6.74,'d','e'
8.12,'d','e'
7.42,'d','e'
8.83,'d','e'
6.94,'d','e'
7.4,'d','e'
5.67,'d','e'
8.32,'d','e'
5.97,'d','e'
6.2,'d','e'
6.76,'d','e'
8.29,'d','e'
7.56,'d','e'
7.27,'d','e'
7.24,'d','e'
4.64,'d','e'
5.6,'d','e'
5.59,'d','e'
6.86,'d','e'
6.6,'d','e'
8.05,'d','e'
4.42,'d','e'
3.49,'d','e'
3.14,'d','e'
3.99,'d','e'
4.36,'d','e'
4.94,'d','e'
3.61,'d','e'
3.11,'d','e'
4.06,'d','e'
4.32,'d','e'
4.26,'d','e'
4.19,'d','e'
4.47,'d','e'
4.1,'d','e'
2.95,'d','e'
3.55,'d','e'
3.18,'d','e'
4.89,'d','e'
3.43,'d','e'
2.53,'d','e'
3.59,'d','e'
3.21,'d','e'
3.42,'d','e'
4.33,'d','e'
4.19,'d','e'
3.64,'d','e'
3.59,'d','e'
3.89,'d','e'
4.62,'d','e'
4.67,'d','e'
5,'d','e'
3.55,'d','e'
3.31,'d','e'
3.98,'d','e'
3.77,'d','e'
4.06,'d','e'
5.1,'d','e'
5.1,'d','e'
4.38,'d','e'
5.43,'d','e'
4.74,'d','e'
3.91,'d','e'
5.57,'d','e'
4.29,'d','e'
3.93,'d','e'
3.88,'d','e'
3.17,'d','e'
4.94,'d','e'
4.42,'d','e'
2.88,'d','e'
3.22,'d','e'
4.12,'d','e'
4.23,'d','e'
4.7,'d','e'
4.11,'d','e'
3.5,'d','e'
4.76,'d','e'
4.99,'d','e'
3.48,'d','e'
4.07,'d','e'
4.7,'d','e'
3.71,'d','e'
4.95,'d','e'
4.61,'d','e'
4.84,'d','e'
4.67,'d','e'
5.69,'d','e'
4.49,'d','e'
3.37,'d','e'
4.31,'d','e'
3.33,'d','e'
5.01,'d','e'
3.72,'d','e'
4.93,'d','e'
5.28,'d','e'
4.63,'d','e'
4.85,'d','e'
3.6,'d','e'
4.57,'d','e'
3.23,'d','e'
4.67,'d','e'
4.64,'d','e'
6.39,'d','e'
4.51,'d','e'
4.36,'d','e'
3.41,'d','e'
3.41,'d','e'
3.79,'d','e'
3.25,'d','e'
4.64,'d','e'
3.44,'d','e'
4.19,'d','e'
4.79,'d','e'
4.36,'d','e'
5.07,'d','e'
2.96,'d','e'
3.91,'d','e'
4.55,'d','e'
4.54,'d','e'
3.13,'d','e'
4.55,'d','e'
2.35,'d','e'
3.62,'d','e'
4.32,'d','e'
3.3,'d','e'
3.63,'d','e'
4.43,'d','e'
3.84,'d','e'
4.28,'d','e'
3.17,'d','e'
4.33,'d','e'
4.43,'d','e'
3.64,'d','e'
4.94,'d','e'
4.34,'d','e'
4.24,'d','e'
3.84,'d','e'
4.65,'d','e'
2.72,'d','e'
3.67,'d','e'
3.33,'d','e'
3.19,'d','e'
4.26,'d','e'
5.34,'d','e'
3.51,'d','e'
4.52,'d','e'
3.75,'d','e'
3.49,'d','e'
4.58,'d','e'
3.71,'d','e'
2.42,'d','e'
4.58,'d','e'
5.37,'d','e'
4.75,'d','e'
3.4,'d','e'
3.17,'d','e'
2.97,'d','e'
4.39,'d','e'
4.12,'d','e'
4.53,'d','e'
4.85,'d','e'
3.28,'d','e'
4,'d','e'
3.61,'d','e'
3.92,'d','e'
3.83,'d','e'
3.44,'d','e'
3.66,'d','e'
3.54,'d','e'
4.47,'d','e'
4.34,'d','e'
5.82,'d','e'
2.75,'d','e'
3.54,'d','e'
3.04,'d','e'
3.85,'d','e'
4.44,'d','e'
4.15,'d','e'
3.14,'d','e'
3.25,'d','e'
4.75,'d','e'
2.64,'d','e'
4.64,'d','e'
3.21,'d','e'
5.32,'d','e'
4.6,'d','e'
3.5,'d','e'
4.01,'d','e'
4.57,'d','e'
3.92,'d','e'
2.77,'d','e'
1.75,'d','e'
3.99,'d','e'
4.1,'d','e'
4.34,'d','e'
3.71,'d','e'
3.46,'d','e'
4.76,'d','e'
4.34,'d','e'
4.83,'d','e'
5.29,'d','e'
3.39,'d','e'
3.48,'d','e'
3.99,'d','e'
4.23,'d','e'
3.9,'d','e'
4.06,'d','e'
3.68,'d','e'
4.09,'d','e'
3.73,'d','e'
4.55,'d','e'
3.12,'d','e'
3.08,'d','e'
3.98,'d','e'
4.25,'d','e'
4.2,'d','e'
3.45,'d','e'
3.96,'d','e'
4.42,'d','e'
3.91,'d','e'
3.33,'d','e'
3.27,'d','e'
4.42,'d','e'
4.66,'d','e'
4.17,'d','e'
3.83,'d','e'
3.44,'d','e'
3.89,'d','e'
2.82,'d','e'
3.26,'d','e'
3.69,'d','e'
4.58,'d','e'
2.81,'d','e'
4.45,'d','e'
5.14,'d','e'
4.29,'d','e'
3.67,'d','e'
3.44,'d','e'
3.24,'d','e'
4.87,'d','e'
3.71,'d','e'
3.71,'d','e'
3.92,'d','e'
4.05,'d','e'
4.41,'d','e'
3.61,'d','e'
4.49,'d','e'
4.08,'d','e'
3.9,'d','e'
4.03,'d','e'
4.33,'d','e'
3.41,'d','e'
3.97,'d','e'
4.77,'d','e'
3.78,'d','e'
3.26,'d','e'
4.32,'d','e'
3.38,'d','e'
4.17,'d','e'
4.23,'d','e'
2.82,'d','e'
2.99,'d','e'
3.9,'d','e'
3.31,'d','e'
2.67,'d','e'
4.84,'d','e'
5.96,'d','e'
3.33,'d','e'
2.9,'d','e'
4.67,'d','e'
3.61,'d','e'
4.06,'d','e'
4.79,'d','e'
3.2,'d','e'
3.32,'d','e'
3.93,'d','e'
3.33,'d','e'
4.1,'d','e'
4.91,'d','e'
3.47,'d','e'
3.4,'d','e'
5.04,'d','e'
3.83,'d','e'
3.21,'d','e'
3.64,'d','e'
3.3,'d','e'
3.94,'d','e'
3.64,'d','e'
4.12,'d','e'
3.63,'d','e'
3.17,'d','e'
4.38,'d','e'
4.19,'d','e'
4.66,'d','e'
4,'d','e'
2.99,'d','e'
3.68,'d','e'
4.61,'d','e'
4.32,'d','e'
3.5,'d','e'
4.63,'d','e'
4.5,'d','e'
4.17,'d','e'
3.91,'d','e'
3.62,'d','e'
3.73,'d','e'
3.77,'d','e'
3.7,'d','e'
4.65,'d','e'
3.68,'d','e'
4.25,'d','e'
3.97,'d','e'
3.95,'d','e'
3.82,'d','e'
4.15,'d','e'
3.37,'d','e'
3.44,'d','e'
3.54,'d','e'
4.15,'d','e'
2.77,'d','e'
4.38,'d','e'
3.53,'d','e'
5.51,'d','e'
3.81,'d','e'
4.2,'d','e'
3.62,'d','e'
4.11,'d','e'
4.44,'d','e'
3.69,'d','e'
3.26,'d','e'
4.48,'d','e'
4.74,'d','e'
3.56,'d','e'
3.74,'d','e'
4.86,'d','e'
3.74,'d','e'
3.45,'d','e'
3.61,'d','e'
4.13,'d','e'
2.6,'d','e'
4.38,'d','e'
3.07,'d','e'
4.13,'d','e'
4.01,'d','e'
4.89,'d','e'
3.59,'d','e'
4.18,'d','e'
4.73,'d','e'
6.25,'d','e'
4.5,'d','e'
4.7,'d','e'
4.75,'d','e'
5.43,'d','e'
3.64,'d','e'
2.83,'d','e'
4.07,'d','e'
5.04,'d','e'
2.93,'d','e'
4.02,'d','e'
4,'d','e'
3.97,'d','e'
5.31,'d','e'
3.24,'d','e'
4.67,'d','e'
4.01,'d','e'
4.6,'d','e'
3,'d','e'
3.52,'d','e'
3.81,'d','e'
3.18,'d','e'
4.8,'d','e'
3.35,'d','e'
4.66,'d','e'
7.13,'d','e'
7.5,'d','e'
7.02,'d','e'
8.43,'d','e'
7.99,'d','e'
6.13,'d','e'
6.6,'d','e'
7.41,'d','e'
7.23,'d','e'
6.86,'d','e'
6.6,'d','e'
6.48,'d','e'
6.88,'d','e'
6.38,'d','e'
6.7,'d','e'
7.78,'d','e'
7.34,'d','e'
8.26,'d','e'
7.4,'d','e'
6.76,'d','e'
7.88,'d','e'
7.84,'d','e'
5.52,'d','e'
6,'d','e'
7.34,'d','e'
5.32,'d','e'
8.42,'d','e'
6.82,'d','e'
7.63,'d','e'
6.83,'d','e'
8.59,'d','e'
5.46,'d','e'
6.72,'d','e'
7.67,'d','e'
4.39,'d','e'
7.1,'d','e'
5.87,'d','e'
5.51,'d','e'
5.99,'d','e'
7.52,'d','e'
5.8,'d','e'
8.28,'d','e'
8.13,'d','e'
6.54,'d','e'
6.65,'d','e'
7.65,'d','e'
7.89,'d','e'
6.69,'d','e'
6.37,'d','e'
6.95,'d','e'
7.22,'d','e'
7.9,'d','e'
5.99,'d','e'
5.53,'d','e'
4.98,'d','e'
5.89,'d','e'
7.94,'d','e'
7.31,'d','e'
6.28,'d','e'
6.64,'d','e'
6.58,'d','e'
5.52,'d','e'
8.28,'d','e'
10.84,'d','e'
7.29,'d','e'
7.73,'d','e'
8.18,'d','e'
6.24,'d','e'
7.07,'d','e'
7.15,'d','e'
7.57,'d','e'
6.46,'d','e'
7,'d','e'
7.35,'d','e'
4.92,'d','e'
7.8,'d','e'
5.52,'d','e'
5.9,'d','e'
6.28,'d','e'
9.12,'d','e'
7.1,'d','e'
6.4,'d','e'
5.64,'d','e'
6.89,'d','e'
6.44,'d','e'
7.62,'d','e'
7.86,'d','e'
6.17,'d','e'
8.88,'d','e'
5.07,'d','e'
6.45,'d','e'
6.22,'d','e'
6.38,'d','e'
7.06,'d','e'
8.87,'d','e'
6.71,'d','e'
6.6,'d','e'
6.85,'d','e'
7.64,'d','e'
7.09,'d','e'
7.88,'d','e'
7.6,'d','e'
7.5,'d','e'
8.24,'d','e'
8.57,'d','e'
7.17,'d','e'
6.98,'d','e'
7.93,'d','e'
5.92,'d','e'
6.82,'d','e'
7.04,'d','e'
6.11,'d','e'
8.74,'d','e'
8.72,'d','e'
7.26,'d','e'
6.82,'d','e'
5.88,'d','e'
6.87,'d','e'
6,'d','e'
5.71,'d','e'
6.63,'d','e'
8.59,'d','e'
7.07,'d','e'
7.1,'d','e'
7.83,'d','e'
6.76,'d','e'
5.72,'d','e'
6.89,'d','e'
7.41,'d','e'
6.65,'d','e'
8.34,'d','e'
8.31,'d','e'
5.05,'d','e'
7.77,'d','e'
6.65,'d','e'
5.91,'d','e'
8.17,'d','e'
7.02,'d','e'
6.51,'d','e'
6.55,'d','e'
7.74,'d','e'
7.34,'d','e'
5.33,'d','e'
6.96,'d','e'
6.68,'d','e'
6.38,'d','e'
7.07,'d','e'
8.2,'d','e'
6.15,'d','e'
6.17,'d','e'
8.56,'d','e'
6.03,'d','e'
5.06,'d','e'
6.81,'d','e'
7.05,'d','e'
8.43,'d','e'
6.49,'d','e'
7.93,'d','e'
6.51,'d','e'
7.06,'d','e'
7.27,'d','e'
5.84,'d','e'
6.31,'d','e'
8.14,'d','e'
4.91,'d','e'
6.57,'d','e'
7.77,'d','e'
5.86,'d','e'
7.79,'d','e'
6.87,'d','e'
7.69,'d','e'
5.76,'d','e'
4.99,'d','e'
6.14,'d','e'
7.41,'d','e'
7.72,'d','e'
6.41,'d','e'
7.29,'d','e'
7.07,'d','e'
7.32,'d','e'
7.71,'d','e'
7.29,'d','e'
6.44,'d','e'
6.29,'d','e'
7.48,'d','e'
5.45,'d','e'
7.57,'d','e'
9.38,'d','e'
5.16,'d','e'
8.27,'d','e'
6.47,'d','e'
6.85,'d','e'
7.46,'d','e'
6.99,'d','e'
6.49,'d','e'
6.37,'d','e'
6.06,'d','e'
6.83,'d','e'
6.73,'d','e'
6.5,'d','e'
6.51,'d','e'
8.08,'d','e'
7.1,'d','e'
7.42,'d','e'
7.84,'d','e'
6.83,'d','e'
7.47,'d','e'
7.14,'d','e'
5.17,'d','e'
8.64,'d','e'
6.49,'d','e'
5.68,'d','e'
6.2,'d','e'
8.47,'d','e'
5.58,'d','e'
7.54,'d','e'
7.04,'d','e'
7.67,'d','e'
6.47,'d','e'
6.85,'d','e'
7.42,'d','e'
5.69,'d','e'
6.11,'d','e'
8.51,'d','e'
7.47,'d','e'
7.17,'d','e'
8.04,'d','e'
6.25,'d','e'
6.25,'d','e'
8.05,'d','e'
5.79,'d','e'
6.96,'d','e'
7.75,'d','e'
6.31,'d','e'
7.16,'d','e'
6.19,'d','e'
6.93,'d','e'
6.67,'d','e'
6.25,'d','e'
6.35,'d','e'
8.35,'d','e'
5.35,'d','e'
6.53,'d','e'
6.19,'d','e'
7.36,'d','e'
7.28,'d','e'
9.1,'d','e'
6.32,'d','e'
6.22,'d','e'
6.52,'d','e'
6.11,'d','e'
7.1,'d','e'
8.74,'d','e'
6.48,'d','e'
4.8,'d','e'
6.06,'d','e'
5.2,'d','e'
9.2,'d','e'
9.1,'d','e'
7.91,'d','e'
5.5,'d','e'
7.17,'d','e'
7.26,'d','e'
8.32,'d','e'
7.03,'d','e'
6.29,'d','e'
7.38,'d','e'
8.54,'d','e'
6.52,'d','e'
6.73,'d','e'
7.99,'d','e'
8.04,'d','e'
8.37,'d','e'
6.93,'d','e'
6.45,'d','e'
8.22,'d','e'
5.67,'d','e'
6.22,'d','e'
6.3,'d','e'
6.31,'d','e'
8.13,'d','e'
6.97,'d','e'
7.44,'d','e'
6.36,'d','e'
8.11,'d','e'
6.71,'d','e'
7.3,'d','e'
7.64,'d','e'
8,'d','e'
7.67,'d','e'
6.29,'d','e'
5.98,'d','e'
7.52,'d','e'
7.82,'d','e'
6.89,'d','e'
7.02,'d','e'
6.08,'d','e'
7.43,'d','e'
7.26,'d','e'
7.59,'d','e'
5.83,'d','e'
7.34,'d','e'
5.17,'d','e'
5.89,'d','e'
7.38,'d','e'
5.18,'d','e'
7.8,'d','e'
7.24,'d','e'
7.86,'d','e'
7.25,'d','e'
5.26,'d','e'
6.96,'d','e'
6.54,'d','e'
8.74,'d','e'
8.11,'d','e'
8.58,'d','e'
6.71,'d','e'
6.67,'d','e'
5.52,'d','e'
8.18,'d','e'
7.81,'d','e'
5.73,'d','e'
6.38,'d','e'
6.92,'d','e'
6.07,'d','e'
8.76,'d','e'
7.33,'d','e'
8.17,'d','e'
6.4,'d','e'
7.47,'d','e'
7.44,'d','e'
7.8,'d','e'
7.5,'d','e'
7.8,'d','e'
6.74,'d','e'
8.58,'d','e'
7.16,'d','e'
6.94,'d','e'
6.24,'d','e'
7.16,'d','e'
7.11,'d','e'
8.18,'d','e'
7.35,'d','e'
4.85,'d','e'
5.85,'d','e'
6.01,'d','e'
6.22,'d','e'
6.84,'d','e'
4.82,'d','e'
7.66,'d','e'
5.81,'d','e'
6.29,'d','e'
6.85,'d','e'
6.75,'d','p'
6.18,'d','p'
7.81,'d','p'
7.84,'d','p'
5.94,'d','p'
8.44,'d','p'
7.08,'d','p'
6.98,'d','p'
8.51,'d','p'
7.32,'d','p'
5.86,'d','p'
4.6,'d','p'
7.96,'d','p'
7.85,'d','p'
7.58,'d','p'
5.48,'d','p'
6.98,'d','p'
6.23,'d','p'
7.03,'d','p'
5.79,'d','p'
5.99,'d','p'
7.28,'d','p'
9.17,'d','p'
7.49,'d','p'
6.25,'d','p'
7.05,'d','p'
6.82,'d','p'
5.17,'d','p'
6.2,'d','p'
7.05,'d','p'
7.15,'d','p'
6.71,'d','p'
9.94,'d','p'
5.6,'d','p'
7.73,'d','p'
7.35,'d','p'
7,'d','p'
5.9,'d','p'
7.27,'d','p'
6.46,'d','p'
6.73,'d','p'
8.53,'d','p'
6.87,'d','p'
7.64,'d','p'
6.88,'d','p'
7.68,'d','p'
7.23,'d','p'
7.45,'d','p'
8.56,'d','p'
7.68,'d','p'
7.68,'d','p'
6.57,'d','p'
7.72,'d','p'
5.95,'d','p'
6.31,'d','p'
6.08,'d','p'
7.32,'d','p'
7.43,'d','p'
7.15,'d','p'
7.4,'d','p'
6.4,'d','p'
6.56,'d','p'
7.31,'d','p'
7.11,'d','p'
6.73,'d','p'
8.38,'d','p'
7.58,'d','p'
7.09,'d','p'
6.79,'d','p'
6.94,'d','p'
8.37,'d','p'
8.13,'d','p'
7.8,'d','p'
8.25,'d','p'
8.19,'d','p'
7.84,'d','p'
6.05,'d','p'
7.36,'d','p'
7.38,'d','p'
8.59,'d','p'
7.42,'d','p'
6.49,'d','p'
6.56,'d','p'
5.03,'d','p'
4.41,'d','p'
6.13,'d','p'
8.59,'d','p'
7.58,'d','p'
8.54,'d','p'
4.93,'d','p'
6.65,'d','p'
6.94,'d','p'
7.71,'d','p'
8.85,'d','p'
7.78,'d','p'
7.15,'d','p'
6.97,'d','p'
6.1,'d','p'
7.26,'d','p'
6.95,'d','p'
6.76,'d','p'
6.57,'d','p'
7.51,'d','p'
7.16,'d','p'
6.84,'d','p'
7.1,'d','p'
8.72,'d','p'
7.45,'d','p'
4.58,'d','p'
6.63,'d','p'
6.36,'d','p'
5.33,'d','p'
6.98,'d','p'
6.4,'d','p'
7.23,'d','p'
7.55,'d','p'
4.28,'d','p'
6.8,'d','p'
6.94,'d','p'
7.18,'d','p'
7.46,'d','p'
8.52,'d','p'
7.2,'d','p'
7.59,'d','p'
6.52,'d','p'
7.71,'d','p'
8.51,'d','p'
6.43,'d','p'
7.91,'d','p'
8.25,'d','p'
8.61,'d','p'
7.29,'d','p'
6.84,'d','p'
6.13,'d','p'
7.13,'d','p'
8.72,'d','p'
5.7,'d','p'
6.86,'d','p'
6.05,'d','p'
6.64,'d','p'
5.65,'d','p'
6.05,'d','p'
6.18,'d','p'
7.76,'d','p'
6.36,'d','p'
7.16,'d','p'
8.36,'d','p'
6.72,'d','p'
5.98,'d','p'
6.55,'d','p'
6.89,'d','p'
6.12,'d','p'
6.33,'d','p'
7.27,'d','p'
7.87,'d','p'
5.57,'d','p'
7.14,'d','p'
7.34,'d','p'
7.21,'d','p'
5.85,'d','p'
5.43,'d','p'
7.51,'d','p'
9.23,'d','p'
6.82,'d','p'
6.48,'d','p'
6.78,'d','p'
6.77,'d','p'
6.17,'d','p'
8.21,'d','p'
6.1,'d','p'
6.41,'d','p'
6.86,'d','p'
6.2,'d','p'
7.76,'d','p'
7.15,'d','p'
6.2,'d','p'
7.27,'d','p'
7.94,'d','p'
5.76,'d','p'
7.34,'d','p'
5.94,'d','p'
8.29,'d','p'
5.5,'d','p'
7.19,'d','p'
7.7,'d','p'
6.33,'d','p'
9.42,'d','p'
7.46,'d','p'
6.12,'d','p'
7.85,'d','p'
8.22,'d','p'
7.67,'d','p'
7.55,'d','p'
6.11,'d','p'
7.73,'d','p'
5.97,'d','p'
6.47,'d','p'
7.86,'d','p'
6.98,'d','p'
8.35,'d','p'
5.43,'d','p'
7.47,'d','p'
7.51,'d','p'
7.4,'d','p'
5.95,'d','p'
6.76,'d','p'
6.84,'d','p'
7.22,'d','p'
6.33,'d','p'
6.83,'d','p'
7.98,'d','p'
6.81,'d','p'
7.2,'d','p'
8.26,'d','p'
6.3,'d','p'
6.14,'d','p'
7.71,'d','p'
6.66,'d','p'
7.03,'d','p'
5.39,'d','p'
7.49,'d','p'
6.46,'d','p'
7.04,'d','p'
8.47,'d','p'
6.39,'d','p'
8.39,'d','p'
6.82,'d','p'
6.15,'d','p'
7.92,'d','p'
5.75,'d','p'
5.81,'d','p'
6.29,'d','p'
6.86,'d','p'
7.78,'d','p'
6.43,'d','p'
6.63,'d','p'
6.3,'d','p'
4.99,'d','p'
6.35,'d','p'
6.71,'d','p'
7.28,'d','p'
7.02,'d','p'
6.26,'d','p'
8.25,'d','p'
4.92,'d','p'
7.74,'d','p'
8.08,'d','p'
7.18,'d','p'
7.35,'d','p'
6.93,'d','p'
7.22,'d','p'
5.4,'d','p'
7.57,'d','p'
7.52,'d','p'
7.28,'d','p'
4.84,'d','p'
6.67,'d','p'
7.72,'d','p'
5.87,'d','p'
7.31,'d','p'
7.51,'d','p'
7.41,'d','p'
6.27,'d','p'
7.09,'d','p'
5.31,'d','p'
5.29,'d','p'
6.77,'d','p'
7.35,'d','p'
6.6,'d','p'
7.03,'d','p'
7.39,'d','p'
6.93,'d','p'
6.39,'d','p'
5.93,'d','p'
7.69,'d','p'
5.99,'d','p'
6.87,'d','p'
6.57,'d','p'
7.7,'d','p'
6.17,'d','p'
6.84,'d','p'
7.97,'d','p'
7.83,'d','p'
5.75,'d','p'
8.02,'d','p'
7.44,'d','p'
6.12,'d','p'
5.3,'d','p'
6.9,'d','p'
8.05,'d','p'
7.28,'d','p'
7.03,'d','p'
6.03,'d','p'
7.54,'d','p'
7.86,'d','p'
5.52,'d','p'
8.13,'d','p'
7.76,'d','p'
6.33,'d','p'
6.3,'d','p'
6.7,'d','p'
6.06,'d','p'
6.58,'d','p'
5.69,'d','p'
7.22,'d','p'
7.95,'d','p'
10.35,'d','p'
8.64,'d','p'
7.22,'d','p'
6.96,'d','p'
7.53,'d','p'
5.68,'d','p'
7.27,'d','p'
5.46,'d','p'
7.31,'d','p'
6.66,'d','p'
5.49,'d','p'
6.12,'d','p'
6.03,'d','p'
7.28,'d','p'
7.44,'d','p'
8.28,'d','p'
7.64,'d','p'
6.45,'d','p'
8.39,'d','p'
6.77,'d','p'
5.89,'d','p'
7.51,'d','p'
6.51,'d','p'
6.71,'d','p'
6.76,'d','p'
5.9,'d','p'
6.14,'d','p'
7.44,'d','p'
7.27,'d','p'
6.81,'d','p'
6.35,'d','p'
5.65,'d','p'
7.9,'d','p'
6.29,'d','p'
6.42,'d','p'
5.32,'d','p'
6.85,'d','p'
7.36,'d','p'
8.08,'d','p'
8.6,'d','p'
5.37,'d','p'
6.23,'d','p'
8.41,'d','p'
6.6,'d','p'
7.24,'d','p'
7.04,'d','p'
5.88,'d','p'
8.57,'d','p'
12.03,'d','p'
11.47,'d','p'
9.67,'d','p'
11.65,'d','p'
9.76,'d','p'
11.78,'d','p'
9.94,'d','p'
13.37,'d','p'
8.83,'d','p'
10.2,'d','p'
10.08,'d','p'
10.18,'d','p'
10.22,'d','p'
9.53,'d','p'
11.76,'d','p'
9.71,'d','p'
11.72,'d','p'
6.95,'d','p'
10.63,'d','p'
9.11,'d','p'
11.92,'d','p'
11.04,'d','p'
11.64,'d','p'
7.87,'d','p'
10.49,'d','p'
9.21,'d','p'
10.7,'d','p'
10.09,'d','p'
10.73,'d','p'
10.61,'d','p'
10.93,'d','p'
6.73,'d','p'
9.58,'d','p'
12.13,'d','p'
11.19,'d','p'
11.77,'d','p'
13.08,'d','p'
10.19,'d','p'
9.27,'d','p'
10.6,'d','p'
12.23,'d','p'
10.8,'d','p'
11.93,'d','p'
12.67,'d','p'
10.79,'d','p'
11.86,'d','p'
10.56,'d','p'
12.57,'d','p'
8.78,'d','p'
9.96,'d','p'
10.23,'d','p'
8.75,'d','p'
9.71,'d','p'
10.89,'d','p'
11.32,'d','p'
13.06,'d','p'
10.14,'d','p'
9.87,'d','p'
11.11,'d','p'
10.77,'d','p'
10.39,'d','p'
11.41,'d','p'
9.01,'d','p'
9.63,'d','p'
8.6,'d','p'
13.34,'d','p'
10.86,'d','p'
10.56,'d','p'
10.38,'d','p'
10.83,'d','p'
10.32,'d','p'
10.28,'d','p'
6.73,'d','p'
9.64,'d','p'
10.99,'d','p'
10.76,'d','p'
10.8,'d','p'
12.01,'d','p'
7.57,'d','p'
9.12,'d','p'
9.32,'d','p'
9.75,'d','p'
13.09,'d','p'
8.85,'d','p'
8.8,'d','p'
10.54,'d','p'
10.26,'d','p'
11.1,'d','p'
11.68,'d','p'
9.6,'d','p'
9.3,'d','p'
8.51,'d','p'
11.79,'d','p'
10.7,'d','p'
9.76,'d','p'
10.11,'d','p'
9.53,'d','p'
9.12,'d','p'
9.19,'d','p'
10.7,'d','p'
10.03,'d','p'
9.67,'d','p'
10.34,'d','p'
9.37,'d','p'
13.15,'d','p'
8.34,'d','p'
12.28,'d','p'
9.14,'d','p'
10.58,'d','p'
12.32,'d','p'
11.77,'d','p'
11.1,'d','p'
10.98,'d','p'
11.1,'d','p'
8.64,'d','p'
7.38,'d','p'
10.88,'d','p'
8.5,'d','p'
11.75,'d','p'
13.45,'d','p'
10.16,'d','p'
9.05,'d','p'
11.63,'d','p'
10.48,'d','p'
10.23,'d','p'
11.39,'d','p'
14.47,'d','p'
12.31,'d','p'
12.29,'d','p'
9.62,'d','p'
12.04,'d','p'
10.68,'d','p'
7.37,'d','p'
10.7,'d','p'
8.85,'d','p'
10.99,'d','p'
10.81,'d','p'
11.82,'d','p'
9.92,'d','p'
9.86,'d','p'
8.44,'d','p'
10.25,'d','p'
7.62,'d','p'
11.11,'d','p'
10.22,'d','p'
8.37,'d','p'
11.21,'d','p'
9.2,'d','p'
10.85,'d','p'
11.8,'d','p'
15.83,'d','p'
9.37,'d','p'
13.21,'d','p'
12.04,'d','p'
9.53,'d','p'
12.65,'d','p'
11.56,'d','p'
8.4,'d','p'
7.02,'d','p'
10.92,'d','p'
10.73,'d','p'
10.17,'d','p'
9.22,'d','p'
11.75,'d','p'
9.46,'d','p'
10.67,'d','p'
10.78,'d','p'
12.11,'d','p'
12.51,'d','p'
12.09,'d','p'
8.6,'d','p'
8.62,'d','p'
9.46,'d','p'
8.82,'d','p'
9.14,'d','p'
8.08,'d','p'
11.57,'d','p'
11.71,'d','p'
11.94,'d','p'
10.56,'d','p'
9.46,'d','p'
9.37,'d','p'
10.9,'d','p'
8.75,'d','p'
10.39,'d','p'
7.83,'d','p'
11.63,'d','p'
11.46,'d','p'
11.16,'d','p'
7.52,'d','p'
10.54,'d','p'
13.45,'d','p'
10.73,'d','p'
9.57,'d','p'
10.83,'d','p'
13.59,'d','p'
9.85,'d','p'
10.1,'d','p'
10.54,'d','p'
10.94,'d','p'
10.01,'d','p'
9.01,'d','p'
12.6,'d','p'
13.07,'d','p'
12.14,'d','p'
12.37,'d','p'
11.93,'d','p'
11.27,'d','p'
11.54,'d','p'
9.88,'d','p'
11.78,'d','p'
10.49,'d','p'
7.34,'d','p'
11.49,'d','p'
11.04,'d','p'
11.8,'d','p'
8.07,'d','p'
10.37,'d','p'
10.66,'d','p'
13.23,'d','p'
8.35,'d','p'
9.73,'d','p'
9.45,'d','p'
10.47,'d','p'
9.79,'d','p'
10.08,'d','p'
11.53,'d','p'
12.11,'d','p'
11.2,'d','p'
11.41,'d','p'
10.08,'d','p'
12.39,'d','p'
12.63,'d','p'
10.14,'d','p'
11.09,'d','p'
10.16,'d','p'
12.24,'d','p'
10.97,'d','p'
11.08,'d','p'
10.79,'d','p'
11.67,'d','p'
12.09,'d','p'
8.55,'d','p'
12.84,'d','p'
8.09,'d','p'
11.11,'d','p'
10.19,'d','p'
10.29,'d','p'
10.03,'d','p'
10.63,'d','p'
11.24,'d','p'
11.46,'d','p'
9.08,'d','p'
10.2,'d','p'
8.07,'d','p'
9.36,'d','p'
10.09,'d','p'
9.44,'d','p'
11.51,'d','p'
8.6,'d','p'
11.71,'d','p'
8.78,'d','p'
7.83,'d','p'
10.7,'d','p'
9.27,'d','p'
9.16,'d','p'
9.52,'d','p'
12.03,'d','p'
12.23,'d','p'
6.99,'d','p'
9.74,'d','p'
10.02,'d','p'
9.51,'d','p'
10.92,'d','p'
7.65,'d','p'
11.87,'d','p'
8.51,'d','p'
10.23,'d','p'
11.12,'d','p'
9.27,'d','p'
10.11,'d','p'
9.15,'d','p'
9.75,'d','p'
11.3,'d','p'
11.43,'d','p'
9.52,'d','p'
9.3,'d','p'
9.17,'d','p'
9.98,'d','p'
9.6,'d','p'
9.45,'d','p'
12.05,'d','p'
12.15,'d','p'
9.53,'d','p'
11.48,'d','p'
11.11,'d','p'
9.49,'d','p'
10.46,'d','p'
11.17,'d','p'
10.62,'d','p'
11.21,'d','p'
12.82,'d','p'
11.1,'d','p'
10.34,'d','p'
7.17,'d','p'
9.59,'d','p'
9.43,'d','p'
10.83,'d','p'
10,'d','p'
10.43,'d','p'
9.94,'d','p'
10.35,'d','p'
11.89,'d','p'
9.62,'d','p'
7.99,'d','p'
9.61,'d','p'
8.78,'d','p'
8.72,'d','p'
8.74,'d','p'
12.74,'d','p'
10.33,'d','p'
11.2,'d','p'
11.07,'d','p'
9.62,'d','p'
12.26,'d','p'
11.85,'d','p'
9.35,'d','p'
10.73,'d','p'
10.42,'d','p'
13.99,'d','p'
10,'d','p'
9.86,'d','p'
12.25,'d','p'
9.15,'d','p'
10.88,'d','p'
7.67,'d','p'
9.68,'d','p'
9.9,'d','p'
10.96,'d','p'
11.2,'d','p'
12.74,'d','p'
11.46,'d','p'
8.89,'d','p'
11,'d','p'
8.96,'d','p'
12.37,'d','p'
10.09,'d','p'
11.07,'d','p'
10.73,'d','p'
10.58,'d','p'
8.41,'d','p'
9.94,'d','p'
4.12,'d','p'
2.62,'d','p'
4.91,'d','p'
3.58,'d','p'
3.38,'d','p'
3.75,'d','p'
3.58,'d','p'
4.02,'d','p'
3.93,'d','p'
3.83,'d','p'
2.7,'d','p'
3.79,'d','p'
3.76,'d','p'
4.32,'d','p'
3.95,'d','p'
4.11,'d','p'
2.89,'d','p'
3.6,'d','p'
2.79,'d','p'
3.99,'d','p'
4.77,'d','p'
3.25,'d','p'
3.7,'d','p'
3.21,'d','p'
4.2,'d','p'
3.66,'d','p'
4.02,'d','p'
5.4,'d','p'
4.25,'d','p'
5.05,'d','p'
3.78,'d','p'
4.33,'d','p'
3.44,'d','p'
3.79,'d','p'
3.68,'d','p'
4.87,'d','p'
3.97,'d','p'
4.88,'d','p'
3.01,'d','p'
2.53,'d','p'
4.01,'d','p'
3.99,'d','p'
3.88,'d','p'
3.32,'d','p'
4.79,'d','p'
4.04,'d','p'
4.18,'d','p'
2.69,'d','p'
3.81,'d','p'
3.89,'d','p'
5.21,'d','p'
4.45,'d','p'
4.72,'d','p'
3.98,'d','p'
3.73,'d','p'
2.71,'d','p'
3.46,'d','p'
4.43,'d','p'
3.51,'d','p'
2.57,'d','p'
4.59,'d','p'
4.91,'d','p'
3.03,'d','p'
4.99,'d','p'
2.95,'d','p'
3.36,'d','p'
4.31,'d','p'
2.25,'d','p'
3.41,'d','p'
4.1,'d','p'
3.81,'d','p'
4.43,'d','p'
3.8,'d','p'
3.91,'d','p'
4.93,'d','p'
3.8,'d','p'
4.02,'d','p'
4.12,'d','p'
3.09,'d','p'
3.1,'d','p'
4.64,'d','p'
3.68,'d','p'
3.87,'d','p'
3.22,'d','p'
2.68,'d','p'
4.98,'d','p'
3.69,'d','p'
4.64,'d','p'
4.09,'d','p'
3.21,'d','p'
3.87,'d','p'
3.24,'d','p'
5.3,'d','p'
4.98,'d','p'
3.05,'d','p'
4.32,'d','p'
3.67,'d','p'
3.55,'d','p'
2.72,'d','p'
4.78,'d','p'
4.3,'d','p'
3.99,'d','p'
4.28,'d','p'
3.4,'d','p'
3.8,'d','p'
4.45,'d','p'
3.46,'d','p'
4.91,'d','p'
2.68,'d','p'
3.47,'d','p'
4.12,'d','p'
4.18,'d','p'
3.49,'d','p'
3.97,'d','p'
3.85,'d','p'
5.05,'d','p'
4.44,'d','p'
4.93,'d','p'
2.02,'d','p'
3.73,'d','p'
3.39,'d','p'
5.11,'d','p'
3.48,'d','p'
3.53,'d','p'
4.38,'d','p'
3.89,'d','p'
5.49,'d','p'
3.45,'d','p'
3.86,'d','p'
3.78,'d','p'
3.44,'d','p'
5.55,'d','p'
2.83,'d','p'
4.59,'d','p'
4.53,'d','p'
4.56,'d','p'
3.82,'d','p'
3.43,'d','p'
4.19,'d','p'
4.35,'d','p'
3.15,'d','p'
3.83,'d','p'
5.13,'d','p'
4.28,'d','p'
3.99,'d','p'
3.36,'d','p'
4.67,'d','p'
3.11,'d','p'
4.49,'d','p'
4.18,'d','p'
4.62,'d','p'
3.71,'d','p'
6.08,'d','p'
3.93,'d','p'
3,'d','p'
3.56,'d','p'
4.73,'d','p'
4.32,'d','p'
2.98,'d','p'
4.1,'d','p'
4.3,'d','p'
3.74,'d','p'
4.51,'d','p'
3.59,'d','p'
3.78,'d','p'
4.15,'d','p'
3.82,'d','p'
2.91,'d','p'
5.09,'d','p'
3.48,'d','p'
3.33,'d','p'
4.06,'d','p'
5.9,'d','p'
5.44,'d','p'
3.82,'d','p'
3.54,'d','p'
4.12,'d','p'
3.47,'d','p'
4.1,'d','p'
3.53,'d','p'
3.34,'d','p'
3.89,'d','p'
3.94,'d','p'
3.2,'d','p'
4.38,'d','p'
3.9,'d','p'
3.96,'d','p'
5.88,'d','p'
3.82,'d','p'
4.26,'d','p'
3.03,'d','p'
4.62,'d','p'
3.78,'d','p'
5.6,'d','p'
4.01,'d','p'
3.25,'d','p'
3.55,'d','p'
3.84,'d','p'
4.04,'d','p'
3.58,'d','p'
4.44,'d','p'
2.98,'d','p'
2.72,'d','p'
4.24,'d','p'
4.08,'d','p'
3.76,'d','p'
3.55,'d','p'
4.25,'d','p'
4.15,'d','p'
4.2,'d','p'
4.98,'d','p'
4.76,'d','p'
3.31,'d','p'
5.25,'d','p'
3.1,'d','p'
4.3,'d','p'
3.74,'d','p'
3.48,'d','p'
4.31,'d','p'
3.47,'d','p'
4.03,'d','p'
3.98,'d','p'
3.53,'d','p'
4.09,'d','p'
4.28,'d','p'
4.17,'d','p'
3.58,'d','p'
4.32,'d','p'
3.14,'d','p'
4.64,'d','p'
4.29,'d','p'
4.69,'d','p'
3.97,'d','p'
4.27,'d','p'
4.28,'d','p'
3.13,'d','p'
4.01,'d','p'
3.85,'d','p'
3.17,'d','p'
3.72,'d','p'
3.8,'d','p'
2.75,'d','p'
3.36,'d','p'
3.5,'d','p'
4.1,'d','p'
3.2,'d','p'
3.67,'d','p'
2.73,'d','p'
3.84,'d','p'
4.38,'d','p'
3.64,'d','p'
4.14,'d','p'
3.82,'d','p'
3.42,'d','p'
4.06,'d','p'
3.35,'d','p'
3.67,'d','p'
4.06,'d','p'
3.59,'d','p'
3.52,'d','p'
3.26,'d','p'
5,'d','p'
3.47,'d','p'
4.42,'d','p'
4.15,'d','p'
4.77,'d','p'
3.53,'d','p'
3.34,'d','p'
3.79,'d','p'
4.67,'d','p'
3.77,'d','p'
3.5,'d','p'
4.38,'d','p'
4.62,'d','p'
3.56,'d','p'
3.85,'d','p'
3.79,'d','p'
5.63,'d','p'
4.32,'d','p'
5.16,'d','p'
4.69,'d','p'
3.66,'d','p'
3.48,'d','p'
5.08,'d','p'
4.1,'d','p'
3.2,'d','p'
3.95,'d','p'
3.69,'d','p'
5.26,'d','p'
3.66,'d','p'
3.07,'d','p'
4.3,'d','p'
3.95,'d','p'
2.76,'d','p'
3.9,'d','p'
3.53,'d','p'
4.12,'d','p'
5.37,'d','p'
5.23,'d','p'
5.52,'d','p'
3.62,'d','p'
3.33,'d','p'
3.93,'d','p'
4.14,'d','p'
3.88,'d','p'
2.91,'d','p'
4.42,'d','p'
2.95,'d','p'
3.8,'d','p'
2.95,'d','p'
5.32,'d','p'
4.16,'d','p'
4.77,'d','p'
3.27,'d','p'
3.69,'d','p'
3.33,'d','p'
4.01,'d','p'
3.65,'d','p'
5.58,'d','p'
3.83,'d','p'
4.51,'d','p'
2.72,'d','p'
4.17,'d','p'
4.31,'d','p'
3.83,'d','p'
3.46,'d','p'
3.75,'d','p'
2.91,'d','p'
4.18,'d','p'
3.84,'d','p'
3.39,'d','p'
4.6,'d','p'
3.17,'d','p'
3.81,'d','p'
3.58,'d','p'
2.87,'d','p'
3.85,'d','p'
3.7,'d','p'
3.48,'d','p'
4,'d','p'
4.14,'d','p'
3.89,'d','p'
3.49,'d','p'
4.51,'d','p'
4.59,'d','p'
4.51,'d','p'
4.96,'d','p'
4.45,'d','p'
3.5,'d','p'
3.88,'d','p'
2.92,'d','p'
4.35,'d','p'
3.86,'d','p'
4.73,'d','p'
4.57,'d','p'
3.87,'d','p'
4.52,'d','p'
4.23,'d','p'
4.27,'d','p'
3.2,'d','p'
4.52,'d','p'
3.9,'d','p'
3.42,'d','p'
2.76,'d','p'
3.46,'d','p'
3.16,'d','p'
3.72,'d','p'
4.57,'d','p'
4.58,'d','p'
2.52,'d','p'
4.52,'d','p'
4.18,'d','p'
3.18,'d','p'
3.89,'d','p'
4.09,'d','p'
4.31,'d','p'
3.79,'d','p'
5.9,'d','p'
4.59,'d','p'
3.68,'d','p'
4.53,'d','p'
3.97,'d','p'
4.11,'d','p'
3.79,'d','p'
3.47,'d','p'
3.05,'d','p'
3.19,'d','p'
3.75,'d','p'
4.62,'d','p'
5.06,'d','p'
4.51,'d','p'
3.85,'d','p'
5.28,'d','p'
4.67,'d','p'
4.89,'d','p'
2.28,'d','p'
3.65,'d','p'
4.49,'d','p'
2.87,'d','p'
4.94,'d','p'
4.94,'d','p'
5.1,'d','p'
2.56,'d','p'
4.24,'d','p'
2.87,'d','p'
3.65,'d','p'
4.12,'d','p'
2.5,'d','p'
5.2,'d','p'
3.84,'d','p'
3.62,'d','p'
4.7,'d','p'
4.15,'d','p'
3.97,'d','p'
2.31,'d','p'
3.68,'d','p'
3.6,'d','p'
4.5,'d','p'
4.28,'d','p'
3.25,'d','p'
4.28,'d','p'
4.31,'d','p'
4.13,'d','p'
4.25,'d','p'
3.2,'d','p'
3.83,'d','p'
3.62,'d','p'
4.26,'d','p'
3.88,'d','p'
3.69,'d','p'
3.19,'d','p'
4.7,'d','p'
4.07,'d','p'
2.89,'d','p'
3.47,'d','p'
2.98,'d','p'
5.29,'d','p'
4.08,'d','p'
3.59,'d','p'
4.15,'d','p'
3.21,'d','p'
3.87,'d','p'
3.31,'d','p'
3.91,'d','p'
3.07,'d','p'
4.26,'d','p'
3.72,'d','p'
3.94,'d','p'
3,'d','p'
4.22,'d','p'
4.37,'d','p'
3.62,'d','p'
3.93,'d','p'
3.75,'d','p'
3.7,'d','p'
4.83,'d','p'
4.95,'d','p'
3.24,'d','p'
3.18,'d','p'
4.37,'d','p'
4.36,'d','p'
4.8,'d','p'
4.29,'d','p'
3.97,'d','p'
3.88,'d','p'
3.97,'d','p'
4.25,'d','p'
3.58,'d','p'
3.91,'d','p'
4.92,'d','p'
4.13,'d','p'
4.58,'d','p'
4.31,'d','p'
4.04,'d','p'
4.13,'d','p'
4.68,'d','p'
3.16,'d','p'
4.21,'d','p'
4.16,'d','p'
3.22,'d','p'
5.37,'d','p'
4.98,'d','p'
4.87,'d','p'
3.73,'d','p'
4.56,'d','p'
4.04,'d','p'
4.3,'d','p'
3.97,'d','p'
3.56,'d','p'
4.61,'d','p'
4.2,'d','p'
2.59,'d','p'
3.73,'d','p'
4.56,'d','p'
2.42,'d','p'
4.52,'d','p'
4.16,'d','p'
4.15,'d','p'
3.53,'d','p'
4.42,'d','p'
2.94,'d','p'
3.68,'d','p'
3.77,'d','p'
4.73,'d','p'
3.5,'d','p'
4.83,'d','p'
3.77,'d','p'
3.89,'d','p'
4.32,'d','p'
3.01,'d','p'
5.01,'d','p'
4.4,'d','p'
3.85,'d','p'
2.86,'d','p'
4.46,'d','p'
3.71,'d','p'
4.46,'d','p'
4.24,'d','p'
3.33,'d','p'
3.02,'d','p'
3.67,'d','p'
4.66,'d','p'
5.13,'d','p'
3.08,'d','p'
3.92,'d','p'
4.13,'d','p'
3.5,'d','p'
2.73,'d','p'
4.81,'d','p'
4.41,'d','p'
4.85,'d','p'
4.82,'d','p'
3.2,'d','p'
4.27,'d','p'
3.21,'d','p'
4.3,'d','p'
4.75,'d','p'
3.29,'d','p'
4.85,'d','p'
4.28,'d','p'
4.96,'d','p'
4.37,'d','p'
3.9,'d','p'
5.14,'d','p'
3.95,'d','p'
4.72,'d','p'
4.31,'d','p'
4.52,'d','p'
3.61,'d','p'
3.81,'d','p'
5.31,'d','p'
4.77,'d','p'
3.15,'d','p'
3.85,'d','p'
3.51,'d','p'
4.74,'d','p'
4.62,'d','p'
4.34,'d','p'
3.86,'d','p'
3.13,'d','p'
3.25,'d','p'
4.84,'d','p'
4.23,'d','p'
3.41,'d','p'
3.6,'d','p'
4.62,'d','p'
3.33,'d','p'
3.72,'d','p'
3.52,'d','p'
4.46,'d','p'
3.93,'d','p'
4.65,'d','p'
2.56,'d','p'
3.75,'d','p'
5.72,'d','p'
4.41,'d','p'
2.77,'d','p'
4.5,'d','p'
3.02,'d','p'
3.88,'d','p'
3.79,'d','p'
3.88,'d','p'
2.97,'d','p'
4.15,'d','p'
3.63,'d','p'
3.05,'d','p'
2.86,'d','p'
4.19,'d','p'
4.68,'d','p'
3.54,'d','p'
4.86,'d','p'
3.86,'d','p'
3.63,'d','p'
5.24,'d','p'
4.2,'d','p'
4.65,'d','p'
4.31,'d','p'
4.07,'d','p'
3.85,'d','p'
3.23,'d','p'
4.4,'d','p'
5.64,'d','p'
4.38,'d','p'
3.75,'d','p'
3.68,'d','p'
4.91,'d','p'
3.61,'d','p'
4.26,'d','p'
4.19,'d','p'
4.62,'d','p'
4.07,'d','p'
4.5,'d','p'
5.04,'d','p'
4.4,'d','p'
3.91,'d','p'
4.01,'d','p'
4.25,'d','p'
4.32,'d','p'
3.77,'d','p'
3.8,'d','p'
3.62,'d','p'
3.64,'d','p'
3.54,'d','p'
2.76,'d','p'
4.57,'d','p'
4.32,'d','p'
4.28,'d','p'
3.58,'d','p'
4.31,'d','p'
3.56,'d','p'
4.64,'d','p'
4.8,'d','p'
3.27,'d','p'
3.65,'d','p'
3.81,'d','p'
3.42,'d','p'
3.69,'d','p'
3.35,'d','p'
4.96,'d','p'
4.09,'d','p'
5.29,'d','p'
4.72,'d','p'
3.77,'d','p'
4.23,'d','p'
4.75,'d','p'
4.2,'d','p'
3.74,'d','p'
4.09,'d','p'
3.9,'d','p'
3.3,'d','p'
4.35,'d','p'
3.73,'d','p'
3.71,'d','p'
3.68,'d','p'
3.56,'d','p'
3.96,'d','p'
3.46,'d','p'
3.36,'d','p'
3.76,'d','p'
4.39,'d','p'
3.11,'d','p'
5.42,'d','p'
3.92,'d','p'
3.85,'d','p'
3.65,'d','p'
4.7,'d','p'
4.28,'d','p'
5.57,'d','p'
4.77,'d','p'
3.73,'d','p'
3.71,'d','p'
4.1,'d','p'
3.95,'d','p'
4.23,'d','p'
4.35,'d','p'
3.44,'d','p'
3.65,'d','p'
3.7,'d','p'
3.85,'d','p'
4.44,'d','p'
3.79,'d','p'
4.19,'d','p'
3.81,'d','p'
4.05,'d','p'
2.65,'d','p'
3.87,'d','p'
3.1,'d','p'
3.8,'d','p'
4.12,'d','p'
5,'d','p'
3.91,'d','p'
4.15,'d','p'
4.75,'d','p'
4.4,'d','p'
3.54,'d','p'
4.14,'d','p'
3.92,'d','p'
4.66,'d','p'
3.55,'d','p'
4.06,'d','p'
4.58,'d','p'
4.43,'d','p'
4.42,'d','p'
3.67,'d','p'
3.07,'d','p'
4.5,'d','p'
8.02,'d','e'
7.53,'d','e'
7.18,'d','e'
8.29,'d','e'
5.6,'d','e'
6.57,'d','e'
6.15,'d','e'
7.43,'d','e'
6.34,'d','e'
8.91,'d','e'
7.23,'d','e'
8.38,'d','e'
8.33,'d','e'
6.31,'d','e'
6.97,'d','e'
5.54,'d','e'
6.31,'d','e'
7.7,'d','e'
7.95,'d','e'
6.98,'d','e'
6.74,'d','e'
7.72,'d','e'
8.25,'d','e'
7.39,'d','e'
9.38,'d','e'
8.64,'d','e'
8.49,'d','e'
8.01,'d','e'
5.99,'d','e'
6.89,'d','e'
8.46,'d','e'
6.67,'d','e'
7.81,'d','e'
6.32,'d','e'
7.09,'d','e'
8.23,'d','e'
7.14,'d','e'
7.18,'d','e'
6.84,'d','e'
8.64,'d','e'
5.87,'d','e'
7.61,'d','e'
8.01,'d','e'
9.07,'d','e'
7.98,'d','e'
7.6,'d','e'
6.98,'d','e'
7.44,'d','e'
8.26,'d','e'
6.83,'d','e'
7.48,'d','e'
6.92,'d','e'
7.47,'d','e'
7.11,'d','e'
6.99,'d','e'
6.96,'d','e'
8.77,'d','e'
5.54,'d','e'
8.43,'d','e'
9.85,'d','e'
8.21,'d','e'
7.57,'d','e'
7.45,'d','e'
9.54,'d','e'
7.07,'d','e'
7.83,'d','e'
6.99,'d','e'
6.95,'d','e'
6.36,'d','e'
6.74,'d','e'
8.69,'d','e'
7.82,'d','e'
7.88,'d','e'
8.02,'d','e'
6.12,'d','e'
7.19,'d','e'
8.59,'d','e'
7.76,'d','e'
7.74,'d','e'
6.89,'d','e'
7.31,'d','e'
7.22,'d','e'
8.83,'d','e'
7.59,'d','e'
7.18,'d','e'
7.82,'d','e'
6.18,'d','e'
7.03,'d','e'
7,'d','e'
7.05,'d','e'
6.48,'d','e'
8.7,'d','e'
7.67,'d','e'
7.55,'d','e'
8,'d','e'
7.95,'d','e'
7.52,'d','e'
6.68,'d','e'
8.51,'d','e'
5.56,'d','e'
7.07,'d','e'
8.11,'d','e'
6.73,'d','e'
6.52,'d','e'
7.36,'d','e'
7.36,'d','e'
6.35,'d','e'
6.56,'d','e'
7.25,'d','e'
7.1,'d','e'
8.3,'d','e'
8.65,'d','e'
7.96,'d','e'
8.03,'d','e'
7.94,'d','e'
7.32,'d','e'
7.3,'d','e'
8.15,'d','e'
7.59,'d','e'
8.18,'d','e'
6.54,'d','e'
7.33,'d','e'
6.69,'d','e'
7.4,'d','e'
7.71,'d','e'
7.6,'d','e'
6.06,'d','e'
6.96,'d','e'
8.92,'d','e'
7.08,'d','e'
6.57,'d','e'
7.66,'d','e'
7.22,'d','e'
6.91,'d','e'
6.6,'d','e'
7.13,'d','e'
7.66,'d','e'
7.5,'d','e'
7.16,'d','e'
8.35,'d','e'
8.46,'d','e'
8.69,'d','e'
8.65,'d','e'
8.38,'d','e'
7.44,'d','e'
8.02,'d','e'
8.56,'d','e'
7.79,'d','e'
7.17,'d','e'
9.16,'d','e'
6.75,'d','e'
6.71,'d','e'
7.13,'d','e'
6.23,'d','e'
7.76,'d','e'
8.04,'d','e'
6.85,'d','e'
6.95,'d','e'
8.24,'d','e'
6.74,'d','e'
7.35,'d','e'
7.34,'d','e'
6.54,'d','e'
6.87,'d','e'
6.82,'d','e'
7.33,'d','e'
6.98,'d','e'
9.32,'d','e'
8.74,'d','e'
7.97,'d','e'
7.65,'d','e'
7.87,'d','e'
7.12,'d','e'
9.38,'d','e'
7.65,'d','e'
8.24,'d','e'
6.81,'d','e'
8.13,'d','e'
7.25,'d','e'
8.33,'d','e'
9,'d','e'
5.79,'d','e'
7.18,'d','e'
7.01,'d','e'
5.24,'d','e'
8.27,'d','e'
7.52,'d','e'
8.12,'d','e'
7.41,'d','e'
9.4,'d','e'
6.34,'d','e'
8.68,'d','e'
7.82,'d','e'
7.38,'d','e'
7.29,'d','e'
8.57,'d','e'
6.88,'d','e'
7.41,'d','e'
5.77,'d','e'
8.23,'d','e'
7.08,'d','e'
8.64,'d','e'
6.68,'d','e'
7.58,'d','e'
5.64,'d','e'
6.94,'d','e'
7.96,'d','e'
7.04,'d','e'
6.5,'d','e'
8,'d','e'
7.89,'d','e'
7.99,'d','e'
6.91,'d','e'
9.43,'d','e'
8.11,'d','e'
7.34,'d','e'
6.31,'d','e'
6.86,'d','e'
7.42,'d','e'
7.65,'d','e'
7,'d','e'
8.04,'d','e'
7.21,'d','e'
9.04,'d','e'
7.78,'d','e'
8.38,'d','e'
6.15,'d','e'
6.15,'d','e'
7.03,'d','e'
6.78,'d','e'
8.13,'d','e'
6.84,'d','e'
7.67,'d','e'
7.38,'d','e'
7.77,'d','e'
6.39,'d','e'
6.81,'d','e'
6.81,'d','e'
7.23,'d','e'
8.54,'d','e'
7.65,'d','e'
8.14,'d','e'
5.62,'d','e'
6.81,'d','e'
6.48,'d','e'
6.93,'d','e'
7.72,'d','e'
7.75,'d','e'
8.18,'d','e'
8.39,'d','e'
6.38,'d','e'
6.55,'d','e'
6.62,'d','e'
8.39,'d','e'
7.98,'d','e'
8.39,'d','e'
6.08,'d','e'
7.94,'d','e'
7.48,'d','e'
8.19,'d','e'
6.77,'d','e'
7.19,'d','e'
7.44,'d','e'
7,'d','e'
7.68,'d','e'
7.36,'d','e'
7.06,'d','e'
6,'d','e'
7.75,'d','e'
6.99,'d','e'
7.4,'d','e'
6.95,'d','e'
7.66,'d','e'
7.16,'d','e'
7.27,'d','e'
7.63,'d','e'
7.35,'d','e'
8.25,'d','e'
7.24,'d','e'
7.59,'d','e'
6.82,'d','e'
7.34,'d','e'
7.51,'d','e'
7.88,'d','e'
6.41,'d','e'
8.27,'d','e'
7.86,'d','e'
7.58,'d','e'
9.08,'d','e'
8.42,'d','e'
8.65,'d','e'
8.19,'d','e'
5.97,'d','e'
7.65,'d','e'
7.61,'d','e'
6.68,'d','e'
8.63,'d','e'
6.32,'d','e'
7.91,'d','e'
7.41,'d','e'
7.82,'d','e'
7.51,'d','e'
6.35,'d','e'
7.03,'d','e'
7.95,'d','e'
6.74,'d','e'
8.56,'d','e'
8.22,'d','e'
7.23,'d','e'
7.63,'d','e'
6.22,'d','e'
8.4,'d','e'
6.77,'d','e'
7.3,'d','e'
6.57,'d','e'
7.25,'d','e'
8.02,'d','e'
8,'d','e'
8.06,'d','e'
7.58,'d','e'
7.95,'d','e'
7.71,'d','e'
7.2,'d','e'
8.84,'d','e'
7.1,'d','e'
8.12,'d','e'
8.19,'d','e'
7.9,'d','e'
7.88,'d','e'
8.11,'d','e'
6.65,'d','e'
6.94,'d','e'
7.55,'d','e'
7.11,'d','e'
8.24,'d','e'
8.03,'d','e'
7.73,'d','e'
7.28,'d','e'
6.65,'d','e'
6.87,'d','e'
6.5,'d','e'
8.8,'d','e'
7.97,'d','e'
7.88,'d','e'
7.41,'d','e'
6.86,'d','e'
8.65,'d','e'
7.22,'d','e'
7.32,'d','e'
7.54,'d','e'
7.54,'d','e'
7.67,'d','e'
7.57,'d','e'
6.64,'d','e'
10.58,'d','e'
8.22,'d','e'
10.46,'d','e'
9.05,'d','e'
13.8,'d','e'
13.66,'d','e'
10.02,'d','e'
12.44,'d','e'
8.25,'d','e'
10.15,'d','e'
11.14,'d','e'
12.62,'d','e'
7.08,'d','e'
8.6,'d','e'
11.1,'d','e'
10.14,'d','e'
11.98,'d','e'
7.41,'d','e'
10.44,'d','e'
9.78,'d','e'
10.5,'d','e'
13.71,'d','e'
7.29,'d','e'
10.68,'d','e'
9.83,'d','e'
11.94,'d','e'
11.31,'d','e'
8.22,'d','e'
9.25,'d','e'
11.69,'d','e'
10.52,'d','e'
11.91,'d','e'
9.92,'d','e'
9.74,'d','e'
10.53,'d','e'
12.65,'d','e'
8.59,'d','e'
9.92,'d','e'
7.67,'d','e'
9.37,'d','e'
10.37,'d','e'
10.24,'d','e'
10.8,'d','e'
10.25,'d','e'
13.6,'d','e'
10.07,'d','e'
11.05,'d','e'
11.82,'d','e'
8.03,'d','e'
9.15,'d','e'
9.43,'d','e'
9.43,'d','e'
11.32,'d','e'
11.44,'d','e'
9.72,'d','e'
10.71,'d','e'
9.76,'d','e'
9.44,'d','e'
8.75,'d','e'
8.39,'d','e'
11.01,'d','e'
9.09,'d','e'
11.04,'d','e'
10.43,'d','e'
9.37,'d','e'
11.3,'d','e'
11.38,'d','e'
12.79,'d','e'
8.74,'d','e'
9.61,'d','e'
9.22,'d','e'
9.67,'d','e'
9.3,'d','e'
9.26,'d','e'
9.98,'d','e'
9.27,'d','e'
11.3,'d','e'
9.06,'d','e'
9,'d','e'
8.97,'d','e'
9.16,'d','e'
8.65,'d','e'
10.61,'d','e'
11.99,'d','e'
12.69,'d','e'
8.53,'d','e'
11.45,'d','e'
7.66,'d','e'
11.35,'d','e'
10.54,'d','e'
10.51,'d','e'
12.32,'d','e'
7.3,'d','e'
11.43,'d','e'
10.43,'d','e'
8.85,'d','e'
6.51,'d','e'
9.31,'d','e'
12.32,'d','e'
7.42,'d','e'
8.14,'d','e'
9.96,'d','e'
11.41,'d','e'
11.46,'d','e'
11.48,'d','e'
8.8,'d','e'
10.33,'d','e'
9.15,'d','e'
8.24,'d','e'
9.45,'d','e'
13.25,'d','e'
10.24,'d','e'
9.81,'d','e'
13.3,'d','e'
9.61,'d','e'
10.17,'d','e'
8.63,'d','e'
11.8,'d','e'
9.51,'d','e'
13.22,'d','e'
12.33,'d','e'
10.75,'d','e'
9.2,'d','e'
12.45,'d','e'
9.46,'d','e'
10.12,'d','e'
11.36,'d','e'
10.71,'d','e'
10.37,'d','e'
10.36,'d','e'
11.78,'d','e'
7,'d','e'
11.48,'d','e'
11.93,'d','e'
10.4,'d','e'
7.88,'d','e'
6.67,'d','e'
9.73,'d','e'
10.71,'d','e'
11.02,'d','e'
9.95,'d','e'
11,'d','e'
7.55,'d','e'
10.99,'d','e'
9.13,'d','e'
9.19,'d','e'
10.36,'d','e'
12.15,'d','e'
11.93,'d','e'
10.93,'d','e'
9.18,'d','e'
7.82,'d','e'
8.54,'d','e'
9.19,'d','e'
10.36,'d','e'
9.51,'d','e'
7.97,'d','e'
11.33,'d','e'
9.23,'d','e'
12.52,'d','e'
11.19,'d','e'
10.99,'d','e'
7.38,'d','e'
10.21,'d','e'
10.19,'d','e'
8.95,'d','e'
8.1,'d','e'
10.08,'d','e'
11.58,'d','e'
10.88,'d','e'
11.12,'d','e'
8.71,'d','e'
10.39,'d','e'
9.88,'d','e'
11.05,'d','e'
7.15,'d','e'
10.01,'d','e'
7.42,'d','e'
6.13,'d','e'
10.38,'d','e'
8.14,'d','e'
10.6,'d','e'
14.25,'d','e'
7.84,'d','e'
11,'d','e'
8.05,'d','e'
10.46,'d','e'
9.84,'d','e'
9.84,'d','e'
6.11,'d','e'
10.93,'d','e'
11.58,'d','e'
7.89,'d','e'
9.91,'d','e'
11.4,'d','e'
8.97,'d','e'
10.93,'d','e'
10.17,'d','e'
8.8,'d','e'
11.23,'d','e'
9.82,'d','e'
10.43,'d','e'
9.06,'d','e'
10.8,'d','e'
11.42,'d','e'
9.18,'d','e'
8.99,'d','e'
11.6,'d','e'
8.99,'d','e'
9.64,'d','e'
8.33,'d','e'
9.93,'d','e'
8.39,'d','e'
12.34,'d','e'
9.65,'d','e'
8.88,'d','e'
12.13,'d','e'
9.61,'d','e'
7.91,'d','e'
7.05,'d','e'
10.24,'d','e'
11.79,'d','e'
11.9,'d','e'
12.48,'d','e'
11.3,'d','e'
10.97,'d','e'
5.65,'d','e'
9.64,'d','e'
11.57,'d','e'
11.43,'d','e'
12.37,'d','e'
12.45,'d','e'
8.27,'d','e'
7.99,'d','e'
9.84,'d','e'
8.94,'d','e'
10.65,'d','e'
8.4,'d','e'
6.98,'d','e'
8.9,'d','e'
9.27,'d','e'
11.39,'d','e'
11.22,'d','e'
10.96,'d','e'
8.07,'d','e'
8.56,'d','e'
6.75,'d','e'
9.94,'d','e'
8.78,'d','e'
10.87,'d','e'
8.26,'d','e'
6.62,'d','e'
10.54,'d','e'
11.07,'d','e'
6.48,'d','e'
9.5,'d','e'
9.82,'d','e'
8.79,'d','e'
12.19,'d','e'
10.31,'d','e'
10.39,'d','e'
10.16,'d','e'
8.35,'d','e'
7.87,'d','e'
10.32,'d','e'
8.4,'d','e'
11.86,'d','e'
7.14,'d','e'
10.11,'d','e'
9.3,'d','e'
7.88,'d','e'
9.67,'d','e'
9.28,'d','e'
8.52,'d','e'
11.36,'d','e'
9.61,'d','e'
9.72,'d','e'
10.61,'d','e'
9.32,'d','e'
9.12,'d','e'
11.01,'d','e'
8.68,'d','e'
11.16,'d','e'
13.44,'d','e'
8.23,'d','e'
7.99,'d','e'
8.97,'d','e'
9.91,'d','e'
15.17,'d','e'
8.73,'d','e'
11.06,'d','e'
13.72,'d','e'
10.65,'d','e'
8.12,'d','e'
11.92,'d','e'
9.66,'d','e'
8.71,'d','e'
9.65,'d','e'
10.75,'d','e'
7.81,'d','e'
10.86,'d','e'
9.65,'d','e'
11.23,'d','e'
9.38,'d','e'
9.49,'d','e'
11.43,'d','e'
9.62,'d','e'
9.88,'d','e'
9.37,'d','e'
7.02,'d','e'
8.31,'d','e'
9.51,'d','e'
13.21,'d','e'
10.27,'d','e'
8.27,'d','e'
11.93,'d','e'
9.42,'d','e'
11.09,'d','e'
9.85,'d','e'
9.78,'d','e'
9.48,'d','e'
11.03,'d','e'
8.45,'d','e'
8.69,'d','e'
8.98,'d','e'
11.44,'d','e'
11.66,'d','e'
9.57,'d','e'
8.95,'d','e'
12.44,'d','e'
8.57,'d','e'
10.2,'d','e'
9.62,'d','e'
9.1,'d','e'
9.98,'d','e'
8.88,'d','e'
10.29,'d','e'
10.27,'d','e'
10.12,'d','e'
9.97,'d','e'
8.89,'d','e'
9.31,'d','e'
9.33,'d','e'
11.58,'d','e'
8.19,'d','e'
11.12,'d','e'
10.56,'d','e'
12.38,'d','e'
9.53,'d','e'
13.12,'d','e'
9.04,'d','e'
11.44,'d','e'
8.8,'d','e'
8.38,'d','e'
9.92,'d','e'
6.7,'d','e'
7.45,'d','e'
6.13,'d','e'
9.07,'d','e'
8.13,'d','e'
8.79,'d','e'
7.59,'d','e'
10.56,'d','e'
8.23,'d','e'
8.41,'d','e'
7.84,'d','e'
8.16,'d','e'
5.39,'d','e'
5.95,'d','e'
7.64,'d','e'
7.13,'d','e'
7.69,'d','e'
7.27,'d','e'
8.78,'d','e'
8.55,'d','e'
5.17,'d','e'
5.74,'d','e'
7.34,'d','e'
8.24,'d','e'
7.17,'d','e'
9.4,'d','e'
6.61,'d','e'
9.67,'d','e'
5.7,'d','e'
7.92,'d','e'
7.91,'d','e'
8.36,'d','e'
8.8,'d','e'
8.17,'d','e'
6.24,'d','e'
9.91,'d','e'
8.15,'d','e'
5.72,'d','e'
9.27,'d','e'
7.35,'d','e'
6.55,'d','e'
8.15,'d','e'
7.69,'d','e'
6.17,'d','e'
7.74,'d','e'
7.52,'d','e'
6.91,'d','e'
8.07,'d','e'
8.28,'d','e'
8.24,'d','e'
8.28,'d','e'
6.28,'d','e'
7.61,'d','e'
11,'d','e'
8.8,'d','e'
9.5,'d','e'
7.77,'d','e'
5.18,'d','e'
7.87,'d','e'
8.16,'d','e'
9.39,'d','e'
7.71,'d','e'
7.7,'d','e'
9.24,'d','e'
6.68,'d','e'
9.78,'d','e'
7.67,'d','e'
7.51,'d','e'
7.02,'d','e'
5.47,'d','e'
9.04,'d','e'
5.89,'d','e'
6.81,'d','e'
8.38,'d','e'
7.05,'d','e'
8.78,'d','e'
9.81,'d','e'
9.77,'d','e'
7.36,'d','e'
7.76,'d','e'
9.23,'d','e'
7.73,'d','e'
8.56,'d','e'
7.21,'d','e'
7.59,'d','e'
9.08,'d','e'
9.9,'d','e'
7.12,'d','e'
9.82,'d','e'
8.14,'d','e'
8.39,'d','e'
9.81,'d','e'
8.6,'d','e'
6.31,'d','e'
9.35,'d','e'
7.23,'d','e'
8.65,'d','e'
6.87,'d','e'
9.04,'d','e'
7.06,'d','e'
9.45,'d','e'
8.66,'d','e'
8.44,'d','e'
6.74,'d','e'
6.4,'d','e'
5.47,'d','e'
7.61,'d','e'
7.04,'d','e'
7.24,'d','e'
5.71,'d','e'
8.33,'d','e'
6.86,'d','e'
8.24,'d','e'
10.24,'d','e'
8.29,'d','e'
8.01,'d','e'
7.06,'d','e'
8.63,'d','e'
9.08,'d','e'
6.31,'d','e'
8.47,'d','e'
8.42,'d','e'
7.46,'d','e'
7.09,'d','e'
6.54,'d','e'
8.28,'d','e'
8.43,'d','e'
11,'d','e'
8.4,'d','e'
6.13,'d','e'
7.55,'d','e'
8.87,'d','e'
6.27,'d','e'
6.04,'d','e'
7.69,'d','e'
6.78,'d','e'
7.35,'d','e'
7.3,'d','e'
8.62,'d','e'
9.35,'d','e'
6.05,'d','e'
7.58,'d','e'
7.85,'d','e'
8.53,'d','e'
6.35,'d','e'
8.75,'d','e'
6.85,'d','e'
8.92,'d','e'
10.97,'d','e'
9.39,'d','e'
8.83,'d','e'
6.57,'d','e'
5.12,'d','e'
6.32,'d','e'
8.98,'d','e'
7.11,'d','e'
5.05,'d','e'
7.82,'d','e'
9.34,'d','e'
8.38,'d','e'
8.07,'d','e'
6.82,'d','e'
9.38,'d','e'
6.55,'d','e'
9.29,'d','e'
7.13,'d','e'
7.06,'d','e'
9.15,'d','e'
7.42,'d','e'
7.34,'d','e'
6.54,'d','e'
5.57,'d','e'
6.59,'d','e'
8.65,'d','e'
7.12,'d','e'
9.16,'d','e'
11.24,'d','e'
10.44,'d','e'
8.15,'d','e'
7.72,'d','e'
8.89,'d','e'
5.97,'d','e'
9.82,'d','e'
7.41,'d','e'
5.66,'d','e'
8.06,'d','e'
9.05,'d','e'
7.22,'d','e'
6.52,'d','e'
8.45,'d','e'
7.15,'d','e'
8.44,'d','e'
11.58,'d','e'
10.09,'d','e'
8.03,'d','e'
9.3,'d','e'
8.34,'d','e'
6.78,'d','e'
9.07,'d','e'
6.46,'d','e'
7.76,'d','e'
6.71,'d','e'
8.82,'d','e'
8.36,'d','e'
8.95,'d','e'
9.11,'d','e'
7.6,'d','e'
6.21,'d','e'
9.1,'d','e'
9.16,'d','e'
8.88,'d','e'
7.08,'d','e'
8.46,'d','e'
4.59,'d','e'
6.31,'d','e'
6.95,'d','e'
8.5,'d','e'
7.85,'d','e'
8.41,'d','e'
6.41,'d','e'
8.06,'d','e'
8.2,'d','e'
9.34,'d','e'
9.25,'d','e'
9.99,'d','e'
8.1,'d','e'
8.86,'d','e'
9.25,'d','e'
8.2,'d','e'
8.18,'d','e'
5.39,'d','e'
7.49,'d','e'
8.37,'d','e'
10.26,'d','e'
7.75,'d','e'
9.37,'d','e'
7.84,'d','e'
7.82,'d','e'
6.49,'d','e'
3.13,'d','e'
8.09,'d','e'
8.09,'d','e'
10.44,'d','e'
8.13,'d','e'
7.86,'d','e'
8.3,'d','e'
6.15,'d','e'
9.54,'d','e'
9.82,'d','e'
7.23,'d','e'
9.19,'d','e'
4.82,'d','e'
8.65,'d','e'
7.37,'d','e'
6.18,'d','e'
10.53,'d','e'
9.43,'d','e'
7.23,'d','e'
7.58,'d','e'
9.01,'d','e'
8.21,'d','e'
6.69,'d','e'
6.39,'d','e'
8.89,'d','e'
9.36,'d','e'
8.25,'d','e'
6.91,'d','e'
9.73,'d','e'
9.03,'d','e'
8.35,'d','e'
6.92,'d','e'
7.85,'d','e'
8.13,'d','e'
9.88,'d','e'
7.12,'d','e'
6.49,'d','e'
8.69,'d','e'
8.78,'d','e'
8.27,'d','e'
6.82,'d','e'
6.79,'d','e'
10.67,'d','e'
8.58,'d','e'
8.52,'d','e'
8.22,'d','e'
7.44,'d','e'
5.75,'d','e'
8.71,'d','e'
9.3,'d','e'
6.9,'d','e'
6.24,'d','e'
8.85,'d','e'
9.36,'d','e'
9.54,'d','e'
7.1,'d','e'
7.07,'d','e'
8.21,'d','e'
8.78,'d','e'
9,'d','e'
8.83,'d','e'
7.71,'d','e'
10.02,'d','e'
9.37,'d','e'
7.31,'d','e'
9.27,'d','e'
8.59,'d','e'
5.92,'d','e'
8.93,'d','e'
8.82,'d','e'
8.77,'d','e'
8.14,'d','e'
8.29,'d','e'
5.6,'d','e'
4.83,'d','e'
6.69,'d','e'
9.42,'d','e'
5.3,'d','e'
9.73,'d','e'
7.84,'d','e'
11.66,'d','e'
9.82,'d','e'
8.45,'d','e'
10.53,'d','e'
7,'d','e'
8.44,'d','e'
7.57,'d','e'
9.2,'d','e'
7.18,'d','e'
8.3,'d','e'
6.18,'d','e'
9.71,'d','e'
6.24,'d','e'
5.89,'d','e'
9.66,'d','e'
10.59,'d','e'
4.5,'d','e'
9.65,'d','e'
6.69,'d','e'
7.36,'d','e'
5.69,'d','e'
7.46,'d','e'
10.02,'d','e'
8.56,'d','e'
9.66,'d','e'
9.5,'d','e'
7.89,'d','e'
6.17,'d','e'
8.02,'d','e'
8.65,'d','e'
8.9,'d','e'
10.18,'d','e'
17.27,'d','e'
16.85,'d','e'
17.66,'d','e'
15.08,'d','e'
16.53,'d','e'
19.65,'d','e'
20.05,'d','e'
13.99,'d','e'
13.55,'d','e'
18.27,'d','e'
14.92,'d','e'
21.08,'d','e'
17.21,'d','e'
11.19,'d','e'
19.32,'d','e'
19.58,'d','e'
21.62,'d','e'
16.33,'d','e'
12.63,'d','e'
20.26,'d','e'
19.53,'d','e'
14.69,'d','e'
10.68,'d','e'
16.45,'d','e'
19.46,'d','e'
13.14,'d','e'
18.26,'d','e'
15.31,'d','e'
13.18,'d','e'
14.6,'d','e'
16.86,'d','e'
11.84,'d','e'
17.07,'d','e'
12.66,'d','e'
15.99,'d','e'
14.96,'d','e'
15.42,'d','e'
17.93,'d','e'
14.58,'d','e'
16.79,'d','e'
18.2,'d','e'
17.45,'d','e'
12.42,'d','e'
15.41,'d','e'
22.32,'d','e'
20.55,'d','e'
15,'d','e'
20.21,'d','e'
20.55,'d','e'
20.02,'d','e'
18.76,'d','e'
18.87,'d','e'
16.23,'d','e'
18.01,'d','e'
12.12,'d','e'
15.8,'d','e'
14.09,'d','e'
13.94,'d','e'
14.13,'d','e'
17.17,'d','e'
19.61,'d','e'
18.54,'d','e'
15.88,'d','e'
17.79,'d','e'
20.58,'d','e'
13.67,'d','e'
12.86,'d','e'
17.23,'d','e'
14.84,'d','e'
14.2,'d','e'
22.36,'d','e'
19.09,'d','e'
15.93,'d','e'
14.94,'d','e'
14.55,'d','e'
15.1,'d','e'
16.41,'d','e'
14.46,'d','e'
18.51,'d','e'
13.82,'d','e'
16.35,'d','e'
15.84,'d','e'
13.78,'d','e'
19.67,'d','e'
18.22,'d','e'
14.36,'d','e'
20.25,'d','e'
19.32,'d','e'
17.17,'d','e'
16.4,'d','e'
13.98,'d','e'
20.07,'d','e'
19.74,'d','e'
16.66,'d','e'
14.76,'d','e'
12.39,'d','e'
15.77,'d','e'
19.81,'d','e'
15.4,'d','e'
19.64,'d','e'
23.5,'d','e'
12.7,'d','e'
16.92,'d','e'
16.66,'d','e'
20.21,'d','e'
15.25,'d','e'
14.66,'d','e'
13.62,'d','e'
15.03,'d','e'
17.09,'d','e'
13.04,'d','e'
17.73,'d','e'
7.98,'d','e'
15.47,'d','e'
16.3,'d','e'
19.57,'d','e'
13.06,'d','e'
19.51,'d','e'
17.47,'d','e'
17.07,'d','e'
16.04,'d','e'
17.2,'d','e'
16.85,'d','e'
15.69,'d','e'
18.65,'d','e'
15.31,'d','e'
16.22,'d','e'
15.83,'d','e'
18.67,'d','e'
17.41,'d','e'
16.39,'d','e'
18.07,'d','e'
10.24,'d','e'
13.38,'d','e'
25.6,'d','e'
19.52,'d','e'
18.05,'d','e'
10.94,'d','e'
18.06,'d','e'
18.55,'d','e'
13.15,'d','e'
17.94,'d','e'
17.51,'d','e'
20.03,'d','e'
17,'d','e'
20.06,'d','e'
19.91,'d','e'
18.36,'d','e'
18.71,'d','e'
16.46,'d','e'
17.09,'d','e'
11.99,'d','e'
22.24,'d','e'
18.96,'d','e'
18.77,'d','e'
18.71,'d','e'
18.15,'d','e'
18.03,'d','e'
22.3,'d','e'
18.71,'d','e'
19.73,'d','e'
12.69,'d','e'
13.11,'d','e'
14.18,'d','e'
15.13,'d','e'
15.99,'d','e'
14.02,'d','e'
19.33,'d','e'
12.83,'d','e'
17.56,'d','e'
16.15,'d','e'
14.53,'d','e'
23.1,'d','e'
15.8,'d','e'
15.49,'d','e'
23.53,'d','e'
17.36,'d','e'
13.79,'d','e'
19.74,'d','e'
15.85,'d','e'
12.74,'d','e'
13.16,'d','e'
15.36,'d','e'
15.24,'d','e'
17.15,'d','e'
17.94,'d','e'
10.33,'d','e'
16.76,'d','e'
11.52,'d','e'
16.09,'d','e'
16.13,'d','e'
16.84,'d','e'
17.63,'d','e'
16.11,'d','e'
16.56,'d','e'
16.5,'d','e'
17.14,'d','e'
18.34,'d','e'
10,'d','e'
13.72,'d','e'
17.19,'d','e'
11.45,'d','e'
15.15,'d','e'
13.39,'d','e'
17.65,'d','e'
14.16,'d','e'
16.51,'d','e'
15.66,'d','e'
17.89,'d','e'
20.25,'d','e'
12.16,'d','e'
19.13,'d','e'
18.65,'d','e'
15.41,'d','e'
18.84,'d','e'
18.22,'d','e'
15.57,'d','e'
18.29,'d','e'
17.2,'d','e'
12.44,'d','e'
22.32,'d','e'
15.33,'d','e'
17.21,'d','e'
19.14,'d','e'
15.59,'d','e'
10.36,'d','e'
22.5,'d','e'
10.59,'d','e'
15.52,'d','e'
19.31,'d','e'
14.08,'d','e'
14.95,'d','e'
15.57,'d','e'
15.74,'d','e'
18.64,'d','e'
11.26,'d','e'
20.11,'d','e'
18.72,'d','e'
18.18,'d','e'
15.09,'d','e'
19.16,'d','e'
17,'d','e'
14.58,'d','e'
15.54,'d','e'
17.4,'d','e'
22.47,'d','e'
18.96,'d','e'
18.36,'d','e'
17.9,'d','e'
13.67,'d','e'
18.02,'d','e'
15.85,'d','e'
17.86,'d','e'
21.53,'d','e'
16.48,'d','e'
16.51,'d','e'
15.15,'d','e'
16.25,'d','e'
22.82,'d','e'
11.61,'d','e'
13.26,'d','e'
14.59,'d','e'
16.66,'d','e'
13.38,'d','e'
18.25,'d','e'
18,'d','e'
17.58,'d','e'
15.09,'d','e'
14.95,'d','e'
13.9,'d','e'
17.09,'d','e'
13.39,'d','e'
15.74,'d','e'
20.01,'d','e'
18.38,'d','e'
15.27,'d','e'
19.37,'d','e'
15.06,'d','e'
14.34,'d','e'
14.39,'d','e'
17.57,'d','e'
11.48,'d','e'
14.88,'d','e'
14.77,'d','e'
19.26,'d','e'
17.36,'d','e'
15.3,'d','e'
17.32,'d','e'
18.62,'d','e'
18.39,'d','e'
6.71,'d','e'
18.69,'d','e'
21.91,'d','e'
19.99,'d','e'
15.12,'d','e'
13.96,'d','e'
15.68,'d','e'
20.16,'d','e'
17.1,'d','e'
14.85,'d','e'
18.76,'d','e'
12.9,'d','e'
20.16,'d','e'
15.82,'d','e'
17.17,'d','e'
18.55,'d','e'
17.17,'d','e'
14.48,'d','e'
17.14,'d','e'
20.65,'d','e'
18.48,'d','e'
7.84,'d','e'
18.93,'d','e'
16.49,'d','e'
15.34,'d','e'
16.73,'d','e'
13.42,'d','e'
12.83,'d','e'
12.04,'d','e'
16.97,'d','e'
13.17,'d','e'
16.26,'d','e'
11.08,'d','e'
16.76,'d','e'
18.56,'d','e'
12.77,'d','e'
16.22,'d','e'
16.37,'d','e'
14.22,'d','e'
14.24,'d','e'
14.46,'d','e'
14.26,'d','e'
17.95,'d','e'
19.78,'d','e'
14.33,'d','e'
14.48,'d','e'
14.62,'d','e'
17.16,'d','e'
13.98,'d','e'
15.89,'d','e'
16.6,'d','e'
19.06,'d','e'
16.02,'d','e'
16.85,'d','e'
12.74,'d','e'
18.44,'d','e'
16.92,'d','e'
18.4,'d','e'
17.61,'d','e'
14.43,'d','e'
16.09,'d','e'
18.09,'d','e'
8.31,'d','p'
6.96,'d','p'
7.91,'d','p'
6.69,'d','p'
8.23,'d','p'
6.98,'d','p'
8.32,'d','p'
8.77,'d','p'
7.19,'d','p'
7.43,'d','p'
7.63,'d','p'
7.34,'d','p'
7.84,'d','p'
7.44,'d','p'
8.42,'d','p'
7.82,'d','p'
6.65,'d','p'
9.17,'d','p'
8.39,'d','p'
7.17,'d','p'
7.99,'d','p'
7.91,'d','p'
7.36,'d','p'
8.05,'d','p'
6.88,'d','p'
5.98,'d','p'
6.97,'d','p'
5.64,'d','p'
7.27,'d','p'
8.01,'d','p'
7.64,'d','p'
7.13,'d','p'
6.91,'d','p'
6.44,'d','p'
7.87,'d','p'
6.86,'d','p'
6.51,'d','p'
4.57,'d','p'
6.6,'d','p'
7.42,'d','p'
8.45,'d','p'
7.65,'d','p'
6.93,'d','p'
9.53,'d','p'
9.08,'d','p'
8.26,'d','p'
8.65,'d','p'
8.58,'d','p'
8.69,'d','p'
7.7,'d','p'
7.09,'d','p'
7.67,'d','p'
6.82,'d','p'
7.79,'d','p'
5.93,'d','p'
6.76,'d','p'
7.52,'d','p'
7.42,'d','p'
9.06,'d','p'
7.48,'d','p'
7.56,'d','p'
9.09,'d','p'
7.83,'d','p'
6.61,'d','p'
7.24,'d','p'
8.19,'d','p'
7.71,'d','p'
7.17,'d','p'
8.25,'d','p'
7.91,'d','p'
7.89,'d','p'
7.25,'d','p'
6.73,'d','p'
7.7,'d','p'
7.58,'d','p'
7.59,'d','p'
7.35,'d','p'
7.47,'d','p'
7.24,'d','p'
7.27,'d','p'
8.61,'d','p'
8.12,'d','p'
6.8,'d','p'
7.57,'d','p'
9.29,'d','p'
8.03,'d','p'
9.3,'d','p'
7.43,'d','p'
7.77,'d','p'
5.79,'d','p'
7.08,'d','p'
8.07,'d','p'
8.24,'d','p'
7.94,'d','p'
7.31,'d','p'
7.09,'d','p'
7.66,'d','p'
7.45,'d','p'
6.35,'d','p'
7.44,'d','p'
6.11,'d','p'
7.35,'d','p'
8.79,'d','p'
8.52,'d','p'
7.02,'d','p'
8.29,'d','p'
7.54,'d','p'
7.68,'d','p'
7.04,'d','p'
7.5,'d','p'
8.83,'d','p'
8.55,'d','p'
7.1,'d','p'
7.5,'d','p'
7.57,'d','p'
7.95,'d','p'
7.62,'d','p'
6.93,'d','p'
6.72,'d','p'
7.74,'d','p'
4.98,'d','p'
6.13,'d','p'
8.29,'d','p'
7.99,'d','p'
7.95,'d','p'
7.95,'d','p'
6.8,'d','p'
8.32,'d','p'
7.18,'d','p'
7.73,'d','p'
7.52,'d','p'
6.83,'d','p'
6.09,'d','p'
7.7,'d','p'
8.3,'d','p'
7.67,'d','p'
7.99,'d','p'
8.05,'d','p'
5.54,'d','p'
5.74,'d','p'
8.92,'d','p'
7.3,'d','p'
6.04,'d','p'
7.19,'d','p'
6.43,'d','p'
8.19,'d','p'
6.48,'d','p'
8.58,'d','p'
7.96,'d','p'
7.06,'d','p'
7.75,'d','p'
8.21,'d','p'
5.61,'d','p'
7.49,'d','p'
7.38,'d','p'
7.77,'d','p'
7.3,'d','p'
6.98,'d','p'
7.69,'d','p'
7.03,'d','p'
7.43,'d','p'
6.61,'d','p'
8.52,'d','p'
7.29,'d','p'
8.13,'d','p'
8.18,'d','p'
7.31,'d','p'
7.34,'d','p'
8.54,'d','p'
7.78,'d','p'
7.42,'d','p'
7.42,'d','p'
7.83,'d','p'
7.94,'d','p'
9.1,'d','p'
6.67,'d','p'
7.93,'d','p'
6.83,'d','p'
7.76,'d','p'
7.61,'d','p'
6.85,'d','p'
8.35,'d','p'
7.35,'d','p'
8.41,'d','p'
7,'d','p'
5.75,'d','p'
8.26,'d','p'
8.04,'d','p'
6.58,'d','p'
6.65,'d','p'
7.47,'d','p'
7.27,'d','p'
8.35,'d','p'
8.12,'d','p'
6.62,'d','p'
6.22,'d','p'
7.41,'d','p'
5.62,'d','p'
7.74,'d','p'
8.53,'d','p'
6.45,'d','p'
7.35,'d','p'
7.98,'d','p'
7.15,'d','p'
7.08,'d','p'
7.25,'d','p'
7.75,'d','p'
6.99,'d','p'
7.83,'d','p'
9.12,'d','p'
6.52,'d','p'
7.47,'d','p'
8.03,'d','p'
7.83,'d','p'
7.12,'d','p'
6.53,'d','p'
8.34,'d','p'
8.22,'d','p'
6.31,'d','p'
6.57,'d','p'
6.43,'d','p'
8.37,'d','p'
7.86,'d','p'
8.03,'d','p'
7.53,'d','p'
7.14,'d','p'
7.28,'d','p'
8.02,'d','p'
9.47,'d','p'
7.92,'d','p'
6.89,'d','p'
9.03,'d','p'
6.14,'d','p'
7.41,'d','p'
9.29,'d','p'
6.97,'d','p'
7.98,'d','p'
7.55,'d','p'
7.03,'d','p'
7.28,'d','p'
7.21,'d','p'
7.17,'d','p'
7.58,'d','p'
8.29,'d','p'
7.94,'d','p'
7.08,'d','p'
7.24,'d','p'
6.86,'d','p'
7.19,'d','p'
7.8,'d','p'
5.77,'d','p'
6.55,'d','p'
7.26,'d','p'
6.72,'d','p'
7.31,'d','p'
7.08,'d','p'
6.67,'d','p'
6.57,'d','p'
7.81,'d','p'
7.13,'d','p'
7.38,'d','p'
7.76,'d','p'
8.16,'d','p'
6.63,'d','p'
7.49,'d','p'
8.91,'d','p'
7.03,'d','p'
6.35,'d','p'
6.79,'d','p'
7.8,'d','p'
7.33,'d','p'
6.2,'d','p'
8.04,'d','p'
6.79,'d','p'
9.88,'d','p'
7.7,'d','p'
6.52,'d','p'
6.46,'d','p'
7.82,'d','p'
6.96,'d','p'
7.35,'d','p'
7.75,'d','p'
7.74,'d','p'
8.08,'d','p'
6.93,'d','p'
6.85,'d','p'
7.2,'d','p'
7.42,'d','p'
7.28,'d','p'
7.39,'d','p'
7.89,'d','p'
7.53,'d','p'
8.01,'d','p'
7.61,'d','p'
7.71,'d','p'
6.52,'d','p'
6.28,'d','p'
6.89,'d','p'
8.42,'d','p'
6.47,'d','p'
8.1,'d','p'
8.59,'d','p'
8.49,'d','p'
6.99,'d','p'
8.83,'d','p'
9.27,'d','p'
5.63,'d','p'
8.19,'d','p'
8.2,'d','p'
7.67,'d','p'
7.42,'d','p'
5.82,'d','p'
5.84,'d','p'
7.14,'d','p'
7.96,'d','p'
7.4,'d','p'
7.83,'d','p'
8.83,'d','p'
7.17,'d','p'
6.31,'d','p'
7.61,'d','p'
6.18,'d','p'
7.66,'d','p'
7.37,'d','p'
8.95,'d','p'
7.92,'d','p'
8.16,'d','p'
6.95,'d','p'
6.69,'d','p'
8.71,'d','p'
8.05,'d','p'
7.37,'d','p'
7.46,'d','p'
6.64,'d','p'
6.52,'d','p'
8.93,'d','p'
7.3,'d','p'
8.23,'d','p'
8.32,'d','p'
6.08,'d','p'
7.45,'d','p'
6.46,'d','p'
6.28,'d','p'
6.62,'d','p'
6.09,'d','p'
7.37,'d','p'
8.53,'d','p'
8.74,'d','p'
7.7,'d','p'
5.66,'d','p'
9.06,'d','p'
8.79,'d','p'
6.03,'d','p'
4.7,'d','p'
6.04,'d','p'
4.9,'d','p'
4.75,'d','p'
5.79,'d','p'
4.8,'d','p'
6.71,'d','p'
5.65,'d','p'
5.87,'d','p'
3.5,'d','p'
4.9,'d','p'
5.67,'d','p'
4.83,'d','p'
4.66,'d','p'
4.65,'d','p'
4.97,'d','p'
5.47,'d','p'
5.24,'d','p'
5.24,'d','p'
4.12,'d','p'
5.55,'d','p'
5.35,'d','p'
4.64,'d','p'
6.95,'d','p'
5.04,'d','p'
5.28,'d','p'
4.88,'d','p'
4.05,'d','p'
4.11,'d','p'
5.67,'d','p'
4.87,'d','p'
5.64,'d','p'
4.96,'d','p'
5.16,'d','p'
4.76,'d','p'
5.35,'d','p'
5.56,'d','p'
5.94,'d','p'
5.4,'d','p'
6.18,'d','p'
5.23,'d','p'
4.06,'d','p'
5.96,'d','p'
5.84,'d','p'
5.38,'d','p'
5.4,'d','p'
5.42,'d','p'
4.65,'d','p'
5.79,'d','p'
6.58,'d','p'
4.46,'d','p'
5.71,'d','p'
5.4,'d','p'
5.52,'d','p'
4.84,'d','p'
4.86,'d','p'
5.41,'d','p'
6.89,'d','p'
5.09,'d','p'
5.94,'d','p'
4.59,'d','p'
5.03,'d','p'
5.38,'d','p'
5.84,'d','p'
5.28,'d','p'
5.42,'d','p'
5.82,'d','p'
5.73,'d','p'
5.34,'d','p'
4.99,'d','p'
6.12,'d','p'
4.15,'d','p'
4.44,'d','p'
5.25,'d','p'
4.58,'d','p'
3.57,'d','p'
4.68,'d','p'
4.68,'d','p'
5.16,'d','p'
5.42,'d','p'
3.77,'d','p'
5.65,'d','p'
5.07,'d','p'
4.98,'d','p'
5.03,'d','p'
4.61,'d','p'
4.3,'d','p'
5.38,'d','p'
5.33,'d','p'
5.21,'d','p'
4.69,'d','p'
5.81,'d','p'
6.52,'d','p'
6.33,'d','p'
4.22,'d','p'
3.64,'d','p'
5.18,'d','p'
4.21,'d','p'
6.16,'d','p'
4.99,'d','p'
5.02,'d','p'
5.97,'d','p'
6.08,'d','p'
5.83,'d','p'
5.3,'d','p'
5.22,'d','p'
5.53,'d','p'
4.75,'d','p'
4.97,'d','p'
5.19,'d','p'
4.84,'d','p'
5.14,'d','p'
3.65,'d','p'
4.66,'d','p'
4.32,'d','p'
4.71,'d','p'
5.14,'d','p'
3.95,'d','p'
5.25,'d','p'
5.12,'d','p'
5.53,'d','p'
3.38,'d','p'
5.01,'d','p'
5.09,'d','p'
5.04,'d','p'
4.76,'d','p'
5.18,'d','p'
2.96,'d','p'
4.49,'d','p'
5.81,'d','p'
4.11,'d','p'
5.68,'d','p'
5.34,'d','p'
5.09,'d','p'
5.07,'d','p'
4.76,'d','p'
5.16,'d','p'
5.25,'d','p'
4.48,'d','p'
4.41,'d','p'
3.74,'d','p'
5.25,'d','p'
4.46,'d','p'
5.32,'d','p'
4.71,'d','p'
5.22,'d','p'
5.09,'d','p'
6.21,'d','p'
4.44,'d','p'
3.97,'d','p'
5.1,'d','p'
4.96,'d','p'
5.38,'d','p'
5.52,'d','p'
5.47,'d','p'
5.9,'d','p'
5.18,'d','p'
4.39,'d','p'
4.86,'d','p'
4.77,'d','p'
4.78,'d','p'
5.14,'d','p'
5.18,'d','p'
6.36,'d','p'
5.49,'d','p'
4.26,'d','p'
4.74,'d','p'
3.67,'d','p'
4.21,'d','p'
5.34,'d','p'
5.81,'d','p'
4.69,'d','p'
5.45,'d','p'
4.27,'d','p'
4.68,'d','p'
4.28,'d','p'
5.9,'d','p'
5.82,'d','p'
5.63,'d','p'
5.25,'d','p'
5.74,'d','p'
6.72,'d','p'
4.73,'d','p'
5.48,'d','p'
4.38,'d','p'
4.36,'d','p'
5.08,'d','p'
5.96,'d','p'
4.86,'d','p'
3.86,'d','p'
5.35,'d','p'
5.3,'d','p'
6.25,'d','p'
4.51,'d','p'
6.72,'d','p'
4.68,'d','p'
4.01,'d','p'
4.5,'d','p'
5.59,'d','p'
4.25,'d','p'
4.66,'d','p'
5.61,'d','p'
5.75,'d','p'
5.08,'d','p'
4.93,'d','p'
4.09,'d','p'
4.47,'d','p'
6.29,'d','p'
5.19,'d','p'
4.06,'d','p'
5.24,'d','p'
4.73,'d','p'
4.21,'d','p'
5.17,'d','p'
6.04,'d','p'
4.92,'d','p'
4.03,'d','p'
5.3,'d','p'
5.25,'d','p'
6.02,'d','p'
3.99,'d','p'
4.9,'d','p'
5.05,'d','p'
5.42,'d','p'
4.09,'d','p'
4.73,'d','p'
6.16,'d','p'
4.94,'d','p'
4.29,'d','p'
5.1,'d','p'
5.57,'d','p'
4.38,'d','p'
4.61,'d','p'
5.99,'d','p'
5.12,'d','p'
4.21,'d','p'
5.65,'d','p'
4.87,'d','p'
3.77,'d','p'
5.27,'d','p'
4.37,'d','p'
5.51,'d','p'
4.64,'d','p'
6.23,'d','p'
4,'d','p'
4.45,'d','p'
6.48,'d','p'
5.98,'d','p'
4.93,'d','p'
5.1,'d','p'
5.66,'d','p'
5.7,'d','p'
4.68,'d','p'
4.15,'d','p'
6.26,'d','p'
4.77,'d','p'
4.83,'d','p'
5.23,'d','p'
4.95,'d','p'
4.92,'d','p'
4.16,'d','p'
4.14,'d','p'
5.52,'d','p'
5.23,'d','p'
5.24,'d','p'
4.76,'d','p'
4.44,'d','p'
5.53,'d','p'
5.23,'d','p'
4.59,'d','p'
4.3,'d','p'
3.99,'d','p'
5.69,'d','p'
4.87,'d','p'
5.15,'d','p'
5.17,'d','p'
4.75,'d','p'
5.34,'d','p'
5.22,'d','p'
5.83,'d','p'
4.78,'d','p'
5.27,'d','p'
4.82,'d','p'
4.54,'d','p'
5.76,'d','p'
4.86,'d','p'
4.5,'d','p'
5.4,'d','p'
5.68,'d','p'
3.22,'d','p'
4.4,'d','p'
4.13,'d','p'
5.87,'d','p'
5.82,'d','p'
5.38,'d','p'
3.93,'d','p'
5.33,'d','p'
4.2,'d','p'
5.67,'d','p'
5.04,'d','p'
4.41,'d','p'
6.42,'d','p'
5.4,'d','p'
4.94,'d','p'
3.34,'d','p'
5.5,'d','p'
4.61,'d','p'
4.12,'d','p'
5.62,'d','p'
4.74,'d','p'
4.71,'d','p'
4.34,'d','p'
5.91,'d','p'
3.85,'d','p'
5.04,'d','p'
4.63,'d','p'
4.83,'d','p'
5.71,'d','p'
4.77,'d','p'
4.94,'d','p'
5.52,'d','p'
5.73,'d','p'
2.84,'d','p'
5.35,'d','p'
5.63,'d','p'
5.49,'d','p'
5.93,'d','p'
5.07,'d','p'
4.93,'d','p'
4.46,'d','p'
4.86,'d','p'
5.4,'d','p'
6,'d','p'
4.57,'d','p'
3.97,'d','p'
4.75,'d','p'
4.39,'d','p'
4.7,'d','p'
4.32,'d','p'
4.95,'d','p'
4.79,'d','p'
5.83,'d','p'
5.28,'d','p'
5.93,'d','p'
5.37,'d','p'
4.24,'d','p'
4.7,'d','p'
5.74,'d','p'
4.98,'d','p'
4.47,'d','p'
5.09,'d','p'
5.27,'d','p'
4.78,'d','p'
11.36,'d','e'
12.68,'d','e'
13.31,'d','e'
9.77,'d','e'
11.42,'d','e'
11.74,'d','e'
10.64,'d','e'
10.2,'d','e'
12.9,'d','e'
9.53,'d','e'
8.69,'d','e'
11.95,'d','e'
10.53,'d','e'
10.78,'d','e'
9.77,'d','e'
8.2,'d','e'
11.9,'d','e'
10.75,'d','e'
11.09,'d','e'
12.11,'d','e'
11.97,'d','e'
8.78,'d','e'
10.84,'d','e'
12.04,'d','e'
12.01,'d','e'
10.92,'d','e'
11.95,'d','e'
11.46,'d','e'
13.72,'d','e'
10.48,'d','e'
10.53,'d','e'
11.12,'d','e'
10.3,'d','e'
10.24,'d','e'
11.55,'d','e'
12.02,'d','e'
11.41,'d','e'
11.2,'d','e'
10.41,'d','e'
10.42,'d','e'
10.4,'d','e'
7.7,'d','e'
7.31,'d','e'
9.2,'d','e'
9.22,'d','e'
8.47,'d','e'
11.48,'d','e'
11.44,'d','e'
9.92,'d','e'
10.55,'d','e'
11.51,'d','e'
10.62,'d','e'
9.91,'d','e'
11.8,'d','e'
11.7,'d','e'
8.71,'d','e'
10.61,'d','e'
10.11,'d','e'
10.58,'d','e'
11.02,'d','e'
11.86,'d','e'
10.98,'d','e'
11.91,'d','e'
10.57,'d','e'
10.44,'d','e'
11.98,'d','e'
10.34,'d','e'
11.38,'d','e'
9.86,'d','e'
11.88,'d','e'
11.44,'d','e'
11.59,'d','e'
13.31,'d','e'
12.34,'d','e'
11.6,'d','e'
11.36,'d','e'
13.39,'d','e'
10.25,'d','e'
12.47,'d','e'
12.73,'d','e'
10.74,'d','e'
9.48,'d','e'
11.59,'d','e'
11.85,'d','e'
10.36,'d','e'
8.83,'d','e'
11.63,'d','e'
11.17,'d','e'
9.79,'d','e'
10,'d','e'
7.79,'d','e'
13.29,'d','e'
11.56,'d','e'
11.26,'d','e'
11.07,'d','e'
10.52,'d','e'
10.41,'d','e'
11,'d','e'
12,'d','e'
10.67,'d','e'
10.8,'d','e'
10.47,'d','e'
10.78,'d','e'
11.21,'d','e'
12.63,'d','e'
8.48,'d','e'
10.26,'d','e'
10.38,'d','e'
14.11,'d','e'
11.38,'d','e'
9.92,'d','e'
9.22,'d','e'
10.82,'d','e'
12.31,'d','e'
9.56,'d','e'
10.62,'d','e'
10.53,'d','e'
14.17,'d','e'
11.7,'d','e'
13.11,'d','e'
10.13,'d','e'
11.37,'d','e'
10.45,'d','e'
11.27,'d','e'
11.13,'d','e'
8.62,'d','e'
9.58,'d','e'
11.93,'d','e'
11.6,'d','e'
12.06,'d','e'
10.74,'d','e'
11.92,'d','e'
11.65,'d','e'
7.61,'d','e'
10.8,'d','e'
11.59,'d','e'
10.41,'d','e'
11.22,'d','e'
12.54,'d','e'
9.91,'d','e'
10.97,'d','e'
13.11,'d','e'
10.95,'d','e'
10.13,'d','e'
11.24,'d','e'
10.51,'d','e'
11.05,'d','e'
10.02,'d','e'
11.23,'d','e'
11.53,'d','e'
11.09,'d','e'
14.53,'d','e'
11.76,'d','e'
11.29,'d','e'
10.01,'d','e'
10.44,'d','e'
12.44,'d','e'
9.68,'d','e'
10.05,'d','e'
9.56,'d','e'
12.4,'d','e'
11.51,'d','e'
11.96,'d','e'
11.77,'d','e'
10.26,'d','e'
7.89,'d','e'
10.45,'d','e'
11.49,'d','e'
9.59,'d','e'
10.62,'d','e'
8.15,'d','e'
9.1,'d','e'
11.14,'d','e'
11.7,'d','e'
9.66,'d','e'
12.35,'d','e'
11.29,'d','e'
9.59,'d','e'
11.18,'d','e'
9.53,'d','e'
12.4,'d','e'
11.84,'d','e'
10.95,'d','e'
10.17,'d','e'
10.95,'d','e'
10.98,'d','e'
10.25,'d','e'
11.1,'d','e'
11.09,'d','e'
11.77,'d','e'
9.74,'d','e'
11.45,'d','e'
12.46,'d','e'
11.13,'d','e'
9.2,'d','e'
11.29,'d','e'
10.16,'d','e'
10.15,'d','e'
11.47,'d','e'
11.89,'d','e'
11.38,'d','e'
11.14,'d','e'
10.59,'d','e'
10.93,'d','e'
11.58,'d','e'
9.93,'d','e'
14.29,'d','e'
11.68,'d','e'
12.52,'d','e'
10.14,'d','e'
10.66,'d','e'
11.83,'d','e'
12.42,'d','e'
9.75,'d','e'
12.66,'d','e'
10.72,'d','e'
10.91,'d','e'
12.48,'d','e'
12.34,'d','e'
12.84,'d','e'
8.52,'d','e'
10.97,'d','e'
10.5,'d','e'
12.15,'d','e'
11.58,'d','e'
12.95,'d','e'
10.78,'d','e'
10.72,'d','e'
12.17,'d','e'
9.46,'d','e'
10.8,'d','e'
10.07,'d','e'
10.39,'d','e'
8.98,'d','e'
12.01,'d','e'
9.8,'d','e'
11.33,'d','e'
13.11,'d','e'
10.18,'d','e'
11.72,'d','e'
9.8,'d','e'
10.2,'d','e'
10.69,'d','e'
9.04,'d','e'
11.79,'d','e'
8.95,'d','e'
10.4,'d','e'
11.1,'d','e'
10.81,'d','e'
10.82,'d','e'
8.89,'d','e'
11.29,'d','e'
14.57,'d','e'
9.08,'d','e'
9.54,'d','e'
12.26,'d','e'
11.48,'d','e'
10.35,'d','e'
10.1,'d','e'
13.28,'d','e'
10.86,'d','e'
10.22,'d','e'
10.62,'d','e'
10.69,'d','e'
10.23,'d','e'
12.69,'d','e'
10.7,'d','e'
11.93,'d','e'
11.76,'d','e'
11.29,'d','e'
10.74,'d','e'
10.01,'d','e'
10.5,'d','e'
11.04,'d','e'
10.2,'d','e'
9.89,'d','e'
12.1,'d','e'
8.66,'d','e'
11.18,'d','e'
11.28,'d','e'
12.04,'d','e'
9.3,'d','e'
9.74,'d','e'
12.07,'d','e'
11.15,'d','e'
9.22,'d','e'
14.15,'d','e'
12.32,'d','e'
12.41,'d','e'
8.63,'d','e'
8.91,'d','e'
13.37,'d','e'
12.88,'d','e'
12.41,'d','e'
10.43,'d','e'
9.4,'d','e'
10.16,'d','e'
11.53,'d','e'
10.76,'d','e'
9.85,'d','e'
11.45,'d','e'
8.78,'d','e'
11.96,'d','e'
13.92,'d','e'
11.23,'d','e'
12.41,'d','e'
10.53,'d','e'
10.11,'d','e'
12,'d','e'
12.19,'d','e'
10.79,'d','e'
13.83,'d','e'
9.51,'d','e'
10.55,'d','e'
10.82,'d','e'
11.49,'d','e'
11.85,'d','e'
11.46,'d','e'
9.9,'d','e'
13.73,'d','e'
11.36,'d','e'
11.85,'d','e'
11.35,'d','e'
11.23,'d','e'
11.29,'d','e'
12.69,'d','e'
13.07,'d','e'
13.14,'d','e'
12.56,'d','e'
9.91,'d','e'
11.53,'d','e'
11.76,'d','e'
10.92,'d','e'
12.47,'d','e'
10.96,'d','e'
9.87,'d','e'
8.35,'d','e'
9.18,'d','e'
11.85,'d','e'
11.04,'d','e'
9.43,'d','e'
11.35,'d','e'
12.81,'d','e'
10.97,'d','e'
11.16,'d','e'
12.56,'d','e'
9.08,'d','e'
11.13,'d','e'
9.05,'d','e'
9.26,'d','e'
13.02,'d','e'
11.95,'d','e'
9.54,'d','e'
7.99,'d','p'
6.69,'d','p'
8.97,'d','p'
7.47,'d','p'
8.35,'d','p'
7.12,'d','p'
7.26,'d','p'
6.54,'d','p'
7.35,'d','p'
7,'d','p'
6.27,'d','p'
8.8,'d','p'
7.62,'d','p'
6.3,'d','p'
7.39,'d','p'
8.45,'d','p'
7.28,'d','p'
8.91,'d','p'
7.04,'d','p'
6.7,'d','p'
7.69,'d','p'
9.16,'d','p'
7.75,'d','p'
7.07,'d','p'
7.37,'d','p'
7.48,'d','p'
8.15,'d','p'
7.12,'d','p'
7.43,'d','p'
6.43,'d','p'
7.23,'d','p'
9.3,'d','p'
6.56,'d','p'
7.61,'d','p'
7.82,'d','p'
7.58,'d','p'
6.33,'d','p'
7.26,'d','p'
7.1,'d','p'
6.49,'d','p'
7.87,'d','p'
7.38,'d','p'
7.27,'d','p'
6.09,'d','p'
8.88,'d','p'
6.53,'d','p'
7.47,'d','p'
7.67,'d','p'
6.91,'d','p'
7.35,'d','p'
8.53,'d','p'
7.37,'d','p'
7.64,'d','p'
7.6,'d','p'
7.82,'d','p'
9.03,'d','p'
8.11,'d','p'
9.07,'d','p'
6.19,'d','p'
6.02,'d','p'
7.6,'d','p'
7.98,'d','p'
7.59,'d','p'
7.18,'d','p'
8.09,'d','p'
8.01,'d','p'
8.33,'d','p'
5.67,'d','p'
7.19,'d','p'
8.11,'d','p'
8.02,'d','p'
7.84,'d','p'
5.66,'d','p'
7.98,'d','p'
6.2,'d','p'
8.07,'d','p'
7.73,'d','p'
6.88,'d','p'
6.93,'d','p'
7.33,'d','p'
6.88,'d','p'
6.07,'d','p'
6.88,'d','p'
8.94,'d','p'
7.64,'d','p'
8.57,'d','p'
7.02,'d','p'
7.8,'d','p'
7.66,'d','p'
8.23,'d','p'
5.68,'d','p'
7.8,'d','p'
6.37,'d','p'
8.35,'d','p'
8.57,'d','p'
6.44,'d','p'
6.57,'d','p'
7.91,'d','p'
7.48,'d','p'
7.2,'d','p'
6.2,'d','p'
8.18,'d','p'
7.97,'d','p'
6.76,'d','p'
7.78,'d','p'
6.78,'d','p'
7.8,'d','p'
7.47,'d','p'
7.9,'d','p'
8.39,'d','p'
7.21,'d','p'
6.88,'d','p'
9.09,'d','p'
7,'d','p'
6.68,'d','p'
9,'d','p'
6.11,'d','p'
7.52,'d','p'
8.02,'d','p'
6.21,'d','p'
7.53,'d','p'
5.94,'d','p'
9.18,'d','p'
7.62,'d','p'
7.71,'d','p'
7.27,'d','p'
6.97,'d','p'
8.15,'d','p'
7.4,'d','p'
7.89,'d','p'
7.93,'d','p'
6.99,'d','p'
6.79,'d','p'
6.71,'d','p'
6.29,'d','p'
8.58,'d','p'
6.56,'d','p'
7.02,'d','p'
7.81,'d','p'
7.76,'d','p'
7.94,'d','p'
7.37,'d','p'
6.91,'d','p'
7.04,'d','p'
8.51,'d','p'
7.08,'d','p'
6.48,'d','p'
8.25,'d','p'
8.04,'d','p'
7.85,'d','p'
6.98,'d','p'
8.77,'d','p'
6.85,'d','p'
8.01,'d','p'
6.95,'d','p'
9.59,'d','p'
7.89,'d','p'
6.32,'d','p'
7.82,'d','p'
8.55,'d','p'
7.14,'d','p'
6.95,'d','p'
7.49,'d','p'
7.55,'d','p'
8.17,'d','p'
7.42,'d','p'
7.73,'d','p'
8.43,'d','p'
7.75,'d','p'
7.2,'d','p'
9.14,'d','p'
6.92,'d','p'
6.96,'d','p'
7.88,'d','p'
7.12,'d','p'
7.62,'d','p'
7.67,'d','p'
8.66,'d','p'
8.87,'d','p'
6.31,'d','p'
7.79,'d','p'
7.62,'d','p'
6.66,'d','p'
7.92,'d','p'
7.23,'d','p'
6.94,'d','p'
7.95,'d','p'
8.6,'d','p'
8.01,'d','p'
8.47,'d','p'
7.93,'d','p'
6.87,'d','p'
7.88,'d','p'
9.16,'d','p'
8.71,'d','p'
7.72,'d','p'
8.76,'d','p'
8.77,'d','p'
8.93,'d','p'
8.6,'d','p'
7.03,'d','p'
7.86,'d','p'
7.86,'d','p'
8.48,'d','p'
8.6,'d','p'
7.02,'d','p'
7.25,'d','p'
7.21,'d','p'
6.45,'d','p'
7.98,'d','p'
7.79,'d','p'
7.68,'d','p'
7.81,'d','p'
7.75,'d','p'
7.77,'d','p'
6.37,'d','p'
9.04,'d','p'
8.91,'d','p'
6.62,'d','p'
7.61,'d','p'
8.68,'d','p'
8.65,'d','p'
8.19,'d','p'
7.09,'d','p'
7.38,'d','p'
7.35,'d','p'
7.88,'d','p'
7.27,'d','p'
7.13,'d','p'
7,'d','p'
8.36,'d','p'
6.03,'d','p'
8.04,'d','p'
7.96,'d','p'
7.36,'d','p'
9.54,'d','p'
6.63,'d','p'
6.76,'d','p'
7.52,'d','p'
7.03,'d','p'
7.12,'d','p'
7.8,'d','p'
8.23,'d','p'
7.23,'d','p'
6.92,'d','p'
7.3,'d','p'
7.24,'d','p'
7.05,'d','p'
8.43,'d','p'
6.6,'d','p'
8.18,'d','p'
7.28,'d','p'
7.9,'d','p'
6.79,'d','p'
7.01,'d','p'
7.35,'d','p'
8.07,'d','p'
6.19,'d','p'
7.07,'d','p'
7.29,'d','p'
8.22,'d','p'
8.56,'d','p'
6.37,'d','p'
8.74,'d','p'
7.44,'d','p'
7.06,'d','p'
6.7,'d','p'
7.88,'d','p'
7.09,'d','p'
6.42,'d','p'
6.41,'d','p'
7.49,'d','p'
7.21,'d','p'
6.86,'d','p'
7.31,'d','p'
9.1,'d','p'
7.15,'d','p'
8.34,'d','p'
6.9,'d','p'
6.93,'d','p'
7.11,'d','p'
6.33,'d','p'
5.63,'d','p'
7.1,'d','p'
7.64,'d','p'
7.2,'d','p'
7.68,'d','p'
7.67,'d','p'
6.83,'d','p'
7.89,'d','p'
6.69,'d','p'
7.17,'d','p'
7.14,'d','p'
8.96,'d','p'
7.6,'d','p'
7.82,'d','p'
7.64,'d','p'
7.09,'d','p'
8.21,'d','p'
8.54,'d','p'
7.5,'d','p'
9.08,'d','p'
8.68,'d','p'
7.78,'d','p'
7.43,'d','p'
7.43,'d','p'
8,'d','p'
6.95,'d','p'
8.2,'d','p'
7.89,'d','p'
7.38,'d','p'
6.91,'d','p'
6.98,'d','p'
7.57,'d','p'
6.82,'d','p'
5.88,'d','p'
7.27,'d','p'
7.64,'d','p'
8.58,'d','p'
6.12,'d','p'
7.26,'d','p'
7.16,'d','p'
6.41,'d','p'
7.02,'d','p'
8.23,'d','p'
7.51,'d','p'
7.2,'d','p'
6.3,'d','p'
6.79,'d','p'
8.97,'d','p'
7.44,'d','p'
8.53,'d','p'
8.5,'d','p'
6.78,'d','p'
7.77,'d','p'
8.39,'d','p'
7.45,'d','p'
9.36,'d','p'
7.28,'d','p'
7.11,'d','p'
6.04,'d','p'
9.05,'d','p'
6.62,'d','p'
7.22,'d','p'
7.38,'d','p'
6.85,'d','p'
7.24,'d','p'
7.68,'d','p'
6.93,'d','p'
6.41,'d','p'
9.21,'d','p'
8.3,'d','p'
6.52,'d','p'
11.14,'d','e'
11.98,'d','e'
10.91,'d','e'
12.16,'d','e'
11.45,'d','e'
10.64,'d','e'
13.97,'d','e'
11.19,'d','e'
12.95,'d','e'
11.07,'d','e'
10.72,'d','e'
11.44,'d','e'
11.35,'d','e'
10.18,'d','e'
11.46,'d','e'
12.91,'d','e'
11.52,'d','e'
13.2,'d','e'
10.84,'d','e'
13.1,'d','e'
11.06,'d','e'
11.37,'d','e'
12.52,'d','e'
11.59,'d','e'
8.69,'d','e'
10.45,'d','e'
10.23,'d','e'
11.83,'d','e'
12.95,'d','e'
10.71,'d','e'
9.83,'d','e'
9.45,'d','e'
12.45,'d','e'
13.36,'d','e'
12.61,'d','e'
10.97,'d','e'
9.46,'d','e'
10.13,'d','e'
11.19,'d','e'
11.91,'d','e'
10.49,'d','e'
12.1,'d','e'
11.63,'d','e'
12.58,'d','e'
11.12,'d','e'
14.24,'d','e'
8.62,'d','e'
10.33,'d','e'
11.3,'d','e'
10.11,'d','e'
9.64,'d','e'
11.79,'d','e'
13.36,'d','e'
10.74,'d','e'
13.22,'d','e'
12.91,'d','e'
9.79,'d','e'
13.43,'d','e'
10.96,'d','e'
12.51,'d','e'
11.21,'d','e'
9.88,'d','e'
11,'d','e'
10.95,'d','e'
10.84,'d','e'
12.36,'d','e'
9.98,'d','e'
11.22,'d','e'
12.06,'d','e'
11.35,'d','e'
12.58,'d','e'
15.87,'d','e'
10.27,'d','e'
9.2,'d','e'
10.9,'d','e'
10.55,'d','e'
12.21,'d','e'
12.94,'d','e'
9.51,'d','e'
11.35,'d','e'
11.76,'d','e'
11.22,'d','e'
12.4,'d','e'
12.23,'d','e'
11.31,'d','e'
10.03,'d','e'
10.13,'d','e'
12.23,'d','e'
12.77,'d','e'
13.28,'d','e'
10.04,'d','e'
11.24,'d','e'
13.13,'d','e'
9.6,'d','e'
12.97,'d','e'
12.18,'d','e'
12.56,'d','e'
12.56,'d','e'
10.99,'d','e'
13.08,'d','e'
10.82,'d','e'
13.4,'d','e'
10.26,'d','e'
11.2,'d','e'
14.21,'d','e'
12.25,'d','e'
10.65,'d','e'
10.12,'d','e'
11.36,'d','e'
12.41,'d','e'
9.66,'d','e'
12.18,'d','e'
11.8,'d','e'
11.15,'d','e'
13.02,'d','e'
11.49,'d','e'
14.03,'d','e'
10.5,'d','e'
12.47,'d','e'
12.8,'d','e'
11.85,'d','e'
10.62,'d','e'
11.12,'d','e'
10.14,'d','e'
10.09,'d','e'
11.67,'d','e'
11.52,'d','e'
12.7,'d','e'
10.21,'d','e'
11.31,'d','e'
11.67,'d','e'
11.75,'d','e'
11.45,'d','e'
11.34,'d','e'
10.97,'d','e'
14,'d','e'
11.98,'d','e'
12.99,'d','e'
10.86,'d','e'
12.25,'d','e'
12.88,'d','e'
11.12,'d','e'
9.65,'d','e'
12,'d','e'
10.8,'d','e'
12.14,'d','e'
12.19,'d','e'
11.6,'d','e'
9.15,'d','e'
13.23,'d','e'
10.69,'d','e'
10.32,'d','e'
12.78,'d','e'
11.03,'d','e'
12.91,'d','e'
11.16,'d','e'
10.88,'d','e'
11.56,'d','e'
9.4,'d','e'
12.33,'d','e'
12.01,'d','e'
12.1,'d','e'
12.39,'d','e'
12.1,'d','e'
12.1,'d','e'
9.41,'d','e'
12.29,'d','e'
11.61,'d','e'
12.69,'d','e'
12.35,'d','e'
12.77,'d','e'
10.33,'d','e'
12.45,'d','e'
10.04,'d','e'
9.92,'d','e'
11.5,'d','e'
10.46,'d','e'
11.12,'d','e'
9.26,'d','e'
10.4,'d','e'
7.68,'d','e'
10.69,'d','e'
12.13,'d','e'
14.35,'d','e'
9.9,'d','e'
11.05,'d','e'
12.34,'d','e'
10.92,'d','e'
10.02,'d','e'
10.37,'d','e'
12.91,'d','e'
12.53,'d','e'
10.66,'d','e'
10.47,'d','e'
11.14,'d','e'
11.4,'d','e'
10.1,'d','e'
11.63,'d','e'
11.15,'d','e'
10.54,'d','e'
13.17,'d','e'
11.31,'d','e'
10.61,'d','e'
10.45,'d','e'
14.08,'d','e'
12.71,'d','e'
9.09,'d','e'
13.3,'d','e'
13.49,'d','e'
10.52,'d','e'
11.23,'d','e'
11.69,'d','e'
11.9,'d','e'
8.97,'d','e'
12.1,'d','e'
9.12,'d','e'
11.22,'d','e'
9.3,'d','e'
9.84,'d','e'
11.3,'d','e'
10.68,'d','e'
9.31,'d','e'
12.08,'d','e'
11.13,'d','e'
11.65,'d','e'
12.49,'d','e'
13.12,'d','e'
11.12,'d','e'
11.55,'d','e'
10.49,'d','e'
12.39,'d','e'
11.28,'d','e'
10.01,'d','e'
12.24,'d','e'
13.77,'d','e'
9.65,'d','e'
11.03,'d','e'
12.7,'d','e'
11.12,'d','e'
11.14,'d','e'
12.2,'d','e'
11.54,'d','e'
12.05,'d','e'
10.21,'d','e'
10.18,'d','e'
10.01,'d','e'
12.43,'d','e'
12.1,'d','e'
11.36,'d','e'
10.64,'d','e'
13.77,'d','e'
10.83,'d','e'
11.88,'d','e'
13.13,'d','e'
11.44,'d','e'
11.73,'d','e'
10.68,'d','e'
11.5,'d','e'
10.69,'d','e'
9.82,'d','e'
11.84,'d','e'
11.88,'d','e'
12.93,'d','e'
11.78,'d','e'
13.84,'d','e'
11.64,'d','e'
12.24,'d','e'
11.31,'d','e'
11.36,'d','e'
10.4,'d','e'
13.41,'d','e'
10.94,'d','e'
13.33,'d','e'
11.38,'d','e'
13.25,'d','e'
10.32,'d','e'
11.82,'d','e'
12.5,'d','e'
12.22,'d','e'
12.63,'d','e'
9.46,'d','e'
12.36,'d','e'
12.35,'d','e'
12.76,'d','e'
9.39,'d','e'
11.09,'d','e'
11.61,'d','e'
13.03,'d','e'
11.68,'d','e'
12.34,'d','e'
11.7,'d','e'
12.84,'d','e'
11.24,'d','e'
9.01,'d','e'
10.9,'d','e'
11.28,'d','e'
11.14,'d','e'
8.8,'d','e'
9.73,'d','e'
11.71,'d','e'
12.86,'d','e'
12.61,'d','e'
12.23,'d','e'
11.58,'d','e'
12.48,'d','e'
12.74,'d','e'
11.15,'d','e'
11.37,'d','e'
10.22,'d','e'
13.86,'d','e'
13.25,'d','e'
11.65,'d','e'
12.43,'d','e'
11.63,'d','e'
11.68,'d','e'
10.96,'d','e'
9.61,'d','e'
13.86,'d','e'
12.6,'d','e'
10.77,'d','e'
9.19,'d','e'
10.39,'d','e'
13.18,'d','e'
10.3,'d','e'
12.48,'d','e'
10.95,'d','e'
12.44,'d','e'
11.15,'d','e'
11.97,'d','e'
8.3,'d','e'
12.99,'d','e'
13.3,'d','e'
13.37,'d','e'
10.25,'d','e'
11.18,'d','e'
10,'d','e'
11.8,'d','e'
11.75,'d','e'
9.96,'d','e'
11.87,'d','e'
11.78,'d','e'
11.29,'d','e'
11.01,'d','e'
10.33,'d','e'
11.22,'d','e'
9.55,'d','e'
9.74,'d','e'
11.54,'d','e'
12.08,'d','e'
12.17,'d','e'
12.36,'d','e'
11.11,'d','e'
10.32,'d','e'
13.9,'d','p'
15.67,'d','p'
17.11,'d','p'
16.91,'d','p'
20.6,'d','p'
15.03,'d','p'
19.86,'d','p'
17.2,'d','p'
18.47,'d','p'
18.91,'d','p'
20.26,'d','p'
19.68,'d','p'
20.69,'d','p'
21.18,'d','p'
14.62,'d','p'
20.8,'d','p'
14.64,'d','p'
19.84,'d','p'
17.12,'d','p'
19.66,'d','p'
20.63,'d','p'
16.21,'d','p'
14.08,'d','p'
15.02,'d','p'
19.21,'d','p'
17.87,'d','p'
18.84,'d','p'
18.79,'d','p'
21.05,'d','p'
18.54,'d','p'
19.35,'d','p'
16.36,'d','p'
16.14,'d','p'
17.72,'d','p'
18.61,'d','p'
13.74,'d','p'
17.17,'d','p'
20.02,'d','p'
18.79,'d','p'
17.24,'d','p'
17.36,'d','p'
22.79,'d','p'
17.78,'d','p'
19.69,'d','p'
16.72,'d','p'
19.95,'d','p'
17.35,'d','p'
18.78,'d','p'
18.54,'d','p'
18.07,'d','p'
18.93,'d','p'
19.37,'d','p'
19.76,'d','p'
22.34,'d','p'
17.65,'d','p'
15.66,'d','p'
15.43,'d','p'
14.09,'d','p'
16,'d','p'
18.86,'d','p'
18.46,'d','p'
18.53,'d','p'
16.48,'d','p'
17.58,'d','p'
22.99,'d','p'
16.55,'d','p'
16.78,'d','p'
19.15,'d','p'
19.99,'d','p'
16.57,'d','p'
16.72,'d','p'
22.31,'d','p'
17.02,'d','p'
17.54,'d','p'
13.71,'d','p'
17.18,'d','p'
15.49,'d','p'
15.89,'d','p'
18.36,'d','p'
20.88,'d','p'
18.22,'d','p'
18.38,'d','p'
17.27,'d','p'
10.81,'d','p'
18.36,'d','p'
20.25,'d','p'
20,'d','p'
14.54,'d','p'
12.97,'d','p'
16.95,'d','p'
17.21,'d','p'
21.54,'d','p'
16.04,'d','p'
18.56,'d','p'
17.86,'d','p'
17,'d','p'
19.76,'d','p'
16.3,'d','p'
15.58,'d','p'
16.26,'d','p'
17.29,'d','p'
20.68,'d','p'
17.19,'d','p'
17.12,'d','p'
13.56,'d','p'
15.81,'d','p'
13.69,'d','p'
12.22,'d','p'
20.2,'d','p'
17.34,'d','p'
16.35,'d','p'
14.23,'d','p'
21.37,'d','p'
16.15,'d','p'
17.22,'d','p'
18.08,'d','p'
21.16,'d','p'
19.8,'d','p'
17.9,'d','p'
17.87,'d','p'
14.83,'d','p'
22.21,'d','p'
19.94,'d','p'
15.95,'d','p'
22.17,'d','p'
19.35,'d','p'
20.46,'d','p'
17.27,'d','p'
15.34,'d','p'
15.25,'d','p'
14.82,'d','p'
17.51,'d','p'
16.12,'d','p'
16.64,'d','p'
19.4,'d','p'
17.73,'d','p'
19.06,'d','p'
16.7,'d','p'
21.73,'d','p'
19.14,'d','p'
16.86,'d','p'
14.9,'d','p'
20.82,'d','p'
16.85,'d','p'
14.64,'d','p'
18.53,'d','p'
14.65,'d','p'
19.48,'d','p'
15.48,'d','p'
16.93,'d','p'
16.61,'d','p'
20.63,'d','p'
17.64,'d','p'
15.93,'d','p'
16.8,'d','p'
14.21,'d','p'
17.69,'d','p'
18.91,'d','p'
19.54,'d','p'
15.95,'d','p'
16.69,'d','p'
19.35,'d','p'
15.08,'d','p'
19.52,'d','p'
22.95,'d','p'
16.29,'d','p'
20.55,'d','p'
13.44,'d','p'
15.04,'d','p'
17.02,'d','p'
15.71,'d','p'
13.54,'d','p'
18.81,'d','p'
17.69,'d','p'
17.55,'d','p'
15.85,'d','p'
15.19,'d','p'
20.63,'d','p'
13.4,'d','p'
15.4,'d','p'
15.67,'d','p'
15.21,'d','p'
19.36,'d','p'
13.32,'d','p'
20.32,'d','p'
18.6,'d','p'
16.37,'d','p'
15.32,'d','p'
14.31,'d','p'
16.25,'d','p'
12.59,'d','p'
16.17,'d','p'
18.91,'d','p'
17.1,'d','p'
17.58,'d','p'
19.91,'d','p'
19.26,'d','p'
19.01,'d','p'
13.53,'d','p'
17.03,'d','p'
17.98,'d','p'
19.06,'d','p'
18.64,'d','p'
17.46,'d','p'
17.59,'d','p'
16.08,'d','p'
14.22,'d','p'
17.86,'d','p'
15.02,'d','p'
19.18,'d','p'
17.56,'d','p'
19.26,'d','p'
17.4,'d','p'
17.68,'d','p'
17.44,'d','p'
14.95,'d','p'
21.41,'d','p'
20.56,'d','p'
12.43,'d','p'
15.32,'d','p'
19.61,'d','p'
21.29,'d','p'
15.37,'d','p'
16.89,'d','p'
16.6,'d','p'
14.42,'d','p'
16.97,'d','p'
12.97,'d','p'
17.88,'d','p'
19.78,'d','p'
14.83,'d','p'
17.48,'d','p'
14.95,'d','p'
13.09,'d','p'
15.2,'d','p'
19.29,'d','p'
15.65,'d','p'
17.37,'d','p'
17.21,'d','p'
14.46,'d','p'
10.66,'d','p'
11.3,'d','p'
18.79,'d','p'
14.98,'d','p'
18.08,'d','p'
17.76,'d','p'
18.05,'d','p'
21.48,'d','p'
18.84,'d','p'
18.18,'d','p'
14.84,'d','p'
17.69,'d','p'
15.33,'d','p'
15.3,'d','p'
17.16,'d','p'
14.76,'d','p'
15.19,'d','p'
19.82,'d','p'
17.75,'d','p'
13.62,'d','p'
18.44,'d','p'
15.6,'d','p'
17.49,'d','p'
19.46,'d','p'
19.46,'d','p'
15.71,'d','p'
12.14,'d','p'
17.48,'d','p'
18.11,'d','p'
20.64,'d','p'
17.19,'d','p'
18.76,'d','p'
22.1,'d','p'
19.74,'d','p'
22.01,'d','p'
16.23,'d','p'
21.3,'d','p'
16.2,'d','p'
19.63,'d','p'
13.6,'d','p'
16.48,'d','p'
16.51,'d','p'
14.78,'d','p'
17.07,'d','p'
20.68,'d','p'
22.62,'d','p'
19.69,'d','p'
15.26,'d','p'
14.59,'d','p'
19.32,'d','p'
16.37,'d','p'
17.07,'d','p'
15.17,'d','p'
21.29,'d','p'
14.79,'d','p'
15.45,'d','p'
17.6,'d','p'
17.36,'d','p'
13.43,'d','p'
20.68,'d','p'
19.1,'d','p'
17.4,'d','p'
15.82,'d','p'
19.61,'d','p'
19.23,'d','p'
16.96,'d','p'
21.35,'d','p'
14.7,'d','p'
15.28,'d','p'
17.8,'d','p'
16.56,'d','p'
15.06,'d','p'
18.14,'d','p'
14.89,'d','p'
17.59,'d','p'
21.26,'d','p'
18.58,'d','p'
19.01,'d','p'
17.95,'d','p'
10.61,'d','p'
19.58,'d','p'
16.96,'d','p'
9.63,'d','p'
18.34,'d','p'
17.85,'d','p'
16.59,'d','p'
14.8,'d','p'
16.97,'d','p'
18.76,'d','p'
11.99,'d','p'
15.92,'d','p'
24.19,'d','p'
18.58,'d','p'
21.66,'d','p'
19.85,'d','p'
14.94,'d','p'
20.67,'d','p'
16.59,'d','p'
18.89,'d','p'
17.19,'d','p'
14.48,'d','p'
19.99,'d','p'
21.24,'d','p'
13.13,'d','p'
15.18,'d','p'
16.19,'d','p'
20.84,'d','p'
16.96,'d','p'
17.56,'d','p'
18.56,'d','p'
15.02,'d','p'
15.41,'d','p'
19.17,'d','p'
5.89,'d','p'
4.83,'d','p'
5.83,'d','p'
6.22,'d','p'
6.54,'d','p'
6.68,'d','p'
8.87,'d','p'
6.65,'d','p'
6.61,'d','p'
6.55,'d','p'
5.28,'d','p'
6.18,'d','p'
4.94,'d','p'
5.79,'d','p'
5.89,'d','p'
7,'d','p'
6.68,'d','p'
6.54,'d','p'
6.12,'d','p'
6.29,'d','p'
5.79,'d','p'
7.8,'d','p'
6.45,'d','p'
7.29,'d','p'
6.85,'d','p'
6.4,'d','p'
6.99,'d','p'
5.34,'d','p'
5.05,'d','p'
7.08,'d','p'
7.07,'d','p'
6.29,'d','p'
5.13,'d','p'
7.26,'d','p'
6.42,'d','p'
6.42,'d','p'
6.89,'d','p'
5.65,'d','p'
5.85,'d','p'
6.77,'d','p'
5.8,'d','p'
6.01,'d','p'
6.07,'d','p'
5.74,'d','p'
7.39,'d','p'
6.8,'d','p'
6.82,'d','p'
5.54,'d','p'
5.35,'d','p'
6.21,'d','p'
6.63,'d','p'
5.9,'d','p'
5.39,'d','p'
7.36,'d','p'
7.44,'d','p'
5.22,'d','p'
7.26,'d','p'
8.06,'d','p'
6.48,'d','p'
7.41,'d','p'
6.27,'d','p'
7.02,'d','p'
7.86,'d','p'
5.54,'d','p'
5.2,'d','p'
6.52,'d','p'
7.18,'d','p'
7.35,'d','p'
6.52,'d','p'
6.28,'d','p'
5.66,'d','p'
8.27,'d','p'
6.94,'d','p'
5.91,'d','p'
6.59,'d','p'
6.87,'d','p'
4.89,'d','p'
7.11,'d','p'
5.24,'d','p'
6.58,'d','p'
5.99,'d','p'
6.93,'d','p'
5.93,'d','p'
6.11,'d','p'
5.4,'d','p'
6.68,'d','p'
6.23,'d','p'
5.66,'d','p'
6.02,'d','p'
7.23,'d','p'
5.13,'d','p'
7.81,'d','p'
6.8,'d','p'
6.25,'d','p'
5.38,'d','p'
6.24,'d','p'
6.43,'d','p'
7.33,'d','p'
7.65,'d','p'
6.1,'d','p'
5.88,'d','p'
5.92,'d','p'
6.45,'d','p'
7.25,'d','p'
6.97,'d','p'
6.13,'d','p'
3.95,'d','p'
8.67,'d','p'
6.86,'d','p'
5.17,'d','p'
6.96,'d','p'
5.42,'d','p'
6.14,'d','p'
6.22,'d','p'
5.62,'d','p'
6.16,'d','p'
6.24,'d','p'
6.51,'d','p'
7.64,'d','p'
7.5,'d','p'
7.92,'d','p'
7.68,'d','p'
6.57,'d','p'
7.32,'d','p'
7.03,'d','p'
6.61,'d','p'
6.43,'d','p'
7.54,'d','p'
7.2,'d','p'
6.86,'d','p'
5.55,'d','p'
6.9,'d','p'
6.47,'d','p'
7.78,'d','p'
6.2,'d','p'
7.02,'d','p'
7.83,'d','p'
5.4,'d','p'
6.74,'d','p'
5.32,'d','p'
5.16,'d','p'
5.22,'d','p'
7.26,'d','p'
4.98,'d','p'
7.09,'d','p'
5.92,'d','p'
4.81,'d','p'
3.5,'d','p'
7.44,'d','p'
6.51,'d','p'
5.77,'d','p'
7.26,'d','p'
6.34,'d','p'
7.72,'d','p'
6.47,'d','p'
6.14,'d','p'
6.9,'d','p'
5.06,'d','p'
6.7,'d','p'
6.34,'d','p'
7.85,'d','p'
6.37,'d','p'
6.57,'d','p'
6.27,'d','p'
6.68,'d','p'
6.75,'d','p'
6.21,'d','p'
5.65,'d','p'
5.92,'d','p'
6.01,'d','p'
5.84,'d','p'
6.4,'d','p'
7.35,'d','p'
6.24,'d','p'
6.08,'d','p'
5.7,'d','p'
5.32,'d','p'
6.69,'d','p'
7.13,'d','p'
7.05,'d','p'
8.43,'d','p'
6.57,'d','p'
7.27,'d','p'
7.16,'d','p'
5.78,'d','p'
7,'d','p'
7.08,'d','p'
7.02,'d','p'
4.72,'d','p'
7.32,'d','p'
7.83,'d','p'
7.1,'d','p'
6.32,'d','p'
6.91,'d','p'
6.02,'d','p'
7.66,'d','p'
6.65,'d','p'
6.28,'d','p'
6.73,'d','p'
5.61,'d','p'
4.81,'d','p'
6.38,'d','p'
5.14,'d','p'
6.98,'d','p'
6.22,'d','p'
6.76,'d','p'
6.18,'d','p'
5.37,'d','p'
5.73,'d','p'
5.9,'d','p'
5.84,'d','p'
6.8,'d','p'
5.59,'d','p'
6.54,'d','p'
6.48,'d','p'
5.86,'d','p'
6.77,'d','p'
6.77,'d','p'
7.41,'d','p'
5.46,'d','p'
7.21,'d','p'
7.43,'d','p'
7.98,'d','p'
5.73,'d','p'
6.15,'d','p'
6.57,'d','p'
6.15,'d','p'
6,'d','p'
5.15,'d','p'
6.21,'d','p'
6.85,'d','p'
7.56,'d','p'
7.1,'d','p'
7.57,'d','p'
5.59,'d','p'
6.15,'d','p'
5.73,'d','p'
7.72,'d','p'
8.85,'d','p'
5.43,'d','p'
6.18,'d','p'
5.59,'d','p'
6.86,'d','p'
7.99,'d','p'
7.3,'d','p'
6.98,'d','p'
5.08,'d','p'
5.99,'d','p'
4.14,'d','p'
6.32,'d','p'
6.93,'d','p'
5.79,'d','p'
7.24,'d','p'
4.25,'d','p'
7.35,'d','p'
6.41,'d','p'
4.68,'d','p'
5.77,'d','p'
6.08,'d','p'
5.23,'d','p'
6.54,'d','p'
6.04,'d','p'
6.41,'d','p'
7.16,'d','p'
5.76,'d','p'
6.75,'d','p'
7.4,'d','p'
7.86,'d','p'
7,'d','p'
6.33,'d','p'
5.57,'d','p'
7.39,'d','p'
6.61,'d','p'
5.77,'d','p'
7.17,'d','p'
5.49,'d','p'
5.33,'d','p'
6.28,'d','p'
6.04,'d','p'
6.94,'d','p'
7.19,'d','p'
6.56,'d','p'
6.33,'d','p'
6.11,'d','p'
7.25,'d','p'
6.3,'d','p'
6.38,'d','p'
6.43,'d','p'
6.72,'d','p'
4.43,'d','p'
6.86,'d','p'
7.12,'d','p'
6.61,'d','p'
6.48,'d','p'
5.84,'d','p'
6.62,'d','p'
5.54,'d','p'
5.88,'d','p'
6.53,'d','p'
7.28,'d','p'
6.37,'d','p'
5.16,'d','p'
6.15,'d','p'
4.65,'d','p'
6.83,'d','p'
6.86,'d','p'
5.86,'d','p'
5.56,'d','p'
7.18,'d','p'
6.28,'d','p'
7.75,'d','p'
6.69,'d','p'
7.86,'d','p'
5.7,'d','p'
6.27,'d','p'
7.19,'d','p'
6.77,'d','p'
5.53,'d','p'
7.37,'d','p'
7.04,'d','p'
5.88,'d','p'
6.58,'d','p'
5.62,'d','p'
5.59,'d','p'
6.99,'d','p'
5.06,'d','p'
5.09,'d','p'
7.44,'d','p'
7.67,'d','p'
5.03,'d','p'
6.62,'d','p'
7.24,'d','p'
5.81,'d','p'
6.06,'d','p'
7.95,'d','p'
8.07,'d','p'
7.01,'d','p'
7.33,'d','p'
6.1,'d','p'
7.4,'d','p'
7.06,'d','p'
7.36,'d','p'
6.42,'d','p'
6.57,'d','p'
5.66,'d','p'
4.92,'d','p'
6.8,'d','p'
6.07,'d','p'
6.29,'d','p'
7,'d','p'
5.99,'d','p'
6.89,'d','p'
7.11,'d','p'
8.77,'d','p'
7.69,'d','p'
6.56,'d','p'
7.11,'d','p'
7.29,'d','p'
6.2,'d','p'
7.34,'d','p'
7.79,'d','p'
7.36,'d','p'
9.41,'d','p'
6.31,'d','p'
8.16,'d','p'
6.82,'d','p'
6.59,'d','p'
7.09,'d','p'
5.99,'d','p'
6.81,'d','p'
7.86,'d','p'
8.25,'d','p'
7.65,'d','p'
9.1,'d','p'
8.6,'d','p'
8.32,'d','p'
8.05,'d','p'
6.14,'d','p'
9.9,'d','p'
6.48,'d','p'
8.35,'d','p'
8.78,'d','p'
8.71,'d','p'
8.32,'d','p'
6.88,'d','p'
6.55,'d','p'
7.41,'d','p'
8.08,'d','p'
6.52,'d','p'
6.66,'d','p'
7.53,'d','p'
8.21,'d','p'
6.97,'d','p'
8.86,'d','p'
7.18,'d','p'
6.3,'d','p'
8.03,'d','p'
6.41,'d','p'
7.76,'d','p'
7.77,'d','p'
7.78,'d','p'
6.63,'d','p'
8.36,'d','p'
7.57,'d','p'
7.45,'d','p'
7.65,'d','p'
8.49,'d','p'
6.45,'d','p'
6.92,'d','p'
8.03,'d','p'
8.43,'d','p'
7.68,'d','p'
7.97,'d','p'
8.04,'d','p'
8.52,'d','p'
5.92,'d','p'
6.46,'d','p'
8.35,'d','p'
8.09,'d','p'
7.19,'d','p'
6.86,'d','p'
7.41,'d','p'
6.94,'d','p'
6.67,'d','p'
7.55,'d','p'
7.79,'d','p'
7.5,'d','p'
8.4,'d','p'
6.2,'d','p'
8.51,'d','p'
8.13,'d','p'
8.36,'d','p'
8.46,'d','p'
6.81,'d','p'
7.56,'d','p'
8.1,'d','p'
6.78,'d','p'
7.05,'d','p'
8.51,'d','p'
7.09,'d','p'
6.51,'d','p'
7.13,'d','p'
7.66,'d','p'
8.06,'d','p'
7.49,'d','p'
7.7,'d','p'
6.07,'d','p'
8.52,'d','p'
7.03,'d','p'
9.25,'d','p'
7.81,'d','p'
7.83,'d','p'
6.66,'d','p'
8.34,'d','p'
7.64,'d','p'
8.27,'d','p'
8.61,'d','p'
6.14,'d','p'
8.74,'d','p'
6.94,'d','p'
6.31,'d','p'
6.56,'d','p'
8.81,'d','p'
6.96,'d','p'
7.54,'d','p'
7.63,'d','p'
7.07,'d','p'
7.36,'d','p'
8.33,'d','p'
7.48,'d','p'
7.15,'d','p'
8.52,'d','p'
8.12,'d','p'
6.97,'d','p'
8.85,'d','p'
8.89,'d','p'
7.81,'d','p'
7.69,'d','p'
8.45,'d','p'
6.72,'d','p'
7.42,'d','p'
6.79,'d','p'
7.26,'d','p'
6.79,'d','p'
8.19,'d','p'
7.22,'d','p'
8.64,'d','p'
6.72,'d','p'
7.83,'d','p'
9.28,'d','p'
7.43,'d','p'
6.79,'d','p'
5.68,'d','p'
6.34,'d','p'
8.61,'d','p'
7.61,'d','p'
7.46,'d','p'
8.06,'d','p'
7.91,'d','p'
8.17,'d','p'
7.41,'d','p'
7.55,'d','p'
8.6,'d','p'
8.03,'d','p'
6.91,'d','p'
8.57,'d','p'
7.49,'d','p'
7.46,'d','p'
8.12,'d','p'
6.96,'d','p'
7.46,'d','p'
8.28,'d','p'
9.04,'d','p'
6.69,'d','p'
6.51,'d','p'
8.71,'d','p'
8.09,'d','p'
7.1,'d','p'
7.32,'d','p'
8.43,'d','p'
6.73,'d','p'
5.83,'d','p'
8.22,'d','p'
8.06,'d','p'
8.04,'d','p'
8.23,'d','p'
6.12,'d','p'
7.51,'d','p'
6.99,'d','p'
7.45,'d','p'
8.08,'d','p'
7.94,'d','p'
7.45,'d','p'
7.62,'d','p'
7.56,'d','p'
8.05,'d','p'
7.79,'d','p'
7.21,'d','p'
7.21,'d','p'
6.33,'d','p'
7.41,'d','p'
7.42,'d','p'
6.3,'d','p'
7.56,'d','p'
7.99,'d','p'
6.76,'d','p'
8.69,'d','p'
6.81,'d','p'
7.32,'d','p'
7.3,'d','p'
6.8,'d','p'
6.92,'d','p'
8.5,'d','p'
6.58,'d','p'
7.01,'d','p'
8.63,'d','p'
5.59,'d','p'
9.1,'d','p'
7.68,'d','p'
9.09,'d','p'
7.51,'d','p'
6.68,'d','p'
8.08,'d','p'
8.56,'d','p'
6.92,'d','p'
6.77,'d','p'
6.57,'d','p'
9,'d','p'
7.19,'d','p'
6.82,'d','p'
7.44,'d','p'
6.97,'d','p'
7.12,'d','p'
7.51,'d','p'
7.76,'d','p'
7.63,'d','p'
7.62,'d','p'
8.17,'d','p'
7.49,'d','p'
7,'d','p'
7.85,'d','p'
6.88,'d','p'
7.76,'d','p'
7.34,'d','p'
7.12,'d','p'
6.94,'d','p'
7.49,'d','p'
6.65,'d','p'
6.63,'d','p'
6.55,'d','p'
8.65,'d','p'
7.48,'d','p'
7.76,'d','p'
5.65,'d','p'
7.98,'d','p'
6.57,'d','p'
8.7,'d','p'
9.09,'d','p'
8.9,'d','p'
7.9,'d','p'
6.9,'d','p'
6.43,'d','p'
7.79,'d','p'
6.63,'d','p'
7.17,'d','p'
8.2,'d','p'
6.93,'d','p'
8.54,'d','p'
5.7,'d','p'
7.11,'d','p'
6.94,'d','p'
8.16,'d','p'
8.56,'d','p'
8.32,'d','p'
7.03,'d','p'
7.53,'d','p'
7.85,'d','p'
7.46,'d','p'
7.32,'d','p'
6.86,'d','p'
8.33,'d','p'
7.33,'d','p'
7.14,'d','p'
6.69,'d','p'
8.97,'d','p'
7.27,'d','p'
7.48,'d','p'
7.93,'d','p'
7.89,'d','p'
6.92,'d','p'
7.56,'d','p'
8.08,'d','p'
7.36,'d','p'
7,'d','p'
5.59,'d','p'
7.56,'d','p'
7.84,'d','p'
6.92,'d','p'
7.58,'d','p'
8.15,'d','p'
7.04,'d','p'
8.21,'d','p'
8.07,'d','p'
6.42,'d','p'
7.08,'d','p'
7.16,'d','p'
7.92,'d','p'
7.65,'d','p'
8.23,'d','p'
7.9,'d','p'
7.87,'d','p'
6.82,'d','p'
8.05,'d','p'
8.29,'d','p'
6.63,'d','p'
7.89,'d','p'
7.58,'d','p'
7.38,'d','p'
7.65,'d','p'
8.96,'d','p'
7.33,'d','p'
6.5,'d','p'
7.26,'d','p'
8.62,'d','p'
8.34,'d','p'
7.92,'d','p'
8.81,'d','p'
7.76,'d','p'
7.59,'d','p'
7.36,'d','p'
6.38,'d','p'
8.33,'d','p'
7.79,'d','p'
7.16,'d','p'
8.49,'d','p'
8.69,'d','p'
8.19,'d','p'
7.51,'d','p'
8.5,'d','p'
7.34,'d','p'
6.45,'d','p'
5.51,'d','p'
8.54,'d','p'
6.81,'d','p'
6.5,'d','p'
8.77,'d','p'
7.26,'d','p'
6.21,'d','p'
7.12,'d','p'
8.89,'d','p'
7.73,'d','p'
8.47,'d','p'
7.98,'d','p'
7.86,'d','p'
7.87,'d','p'
7.03,'d','p'
7.85,'d','p'
7.3,'d','p'
8.24,'d','p'
6.23,'d','p'
6.65,'d','p'
6.22,'d','p'
7.01,'d','p'
7.36,'d','p'
7.75,'d','p'
6.76,'d','p'
15.2,'l','p'
12.99,'l','p'
15.53,'g','p'
17.01,'g','p'
14.08,'l','p'
15.54,'g','p'
11.29,'l','p'
17.73,'g','p'
13.53,'g','p'
17.31,'g','p'
10.69,'g','p'
11.89,'g','p'
13.08,'d','p'
17,'l','p'
16.89,'l','p'
9.49,'g','p'
15.05,'d','p'
13.45,'d','p'
13.84,'g','p'
15.15,'l','p'
12.29,'l','p'
12.46,'l','p'
13.29,'g','p'
13.52,'l','p'
15.27,'g','p'
10.27,'l','p'
17.8,'g','p'
13.88,'l','p'
14.02,'l','p'
14.95,'d','p'
14.13,'l','p'
16.47,'d','p'
16.23,'g','p'
15.2,'g','p'
14.04,'g','p'
12.8,'l','p'
13.26,'g','p'
14.45,'d','p'
14.06,'g','p'
13.43,'l','p'
9.28,'l','p'
11.02,'g','p'
14.25,'l','p'
12.98,'l','p'
14.9,'d','p'
17.49,'l','p'
14.48,'g','p'
11.92,'d','p'
9.11,'d','p'
14.18,'g','p'
16.7,'g','p'
12.88,'g','p'
14.27,'d','p'
14.86,'d','p'
10.67,'d','p'
10.83,'l','p'
13.86,'g','p'
16.18,'g','p'
13.98,'l','p'
12.8,'l','p'
14.78,'l','p'
7.3,'d','p'
13.75,'d','p'
14.28,'l','p'
3.94,'g','p'
13.74,'l','p'
12.14,'d','p'
14.56,'d','p'
8.68,'d','p'
14.69,'l','p'
12.63,'g','p'
13.4,'d','p'
13.4,'g','p'
12.51,'g','p'
15.75,'d','p'
12.25,'d','p'
10.24,'d','p'
14.82,'g','p'
12.92,'d','p'
14.72,'l','p'
18.54,'l','p'
14.76,'l','p'
12.65,'g','p'
14.7,'g','p'
16.95,'l','p'
16.53,'l','p'
15.59,'g','p'
10.44,'d','p'
13.84,'l','p'
13.36,'l','p'
10.61,'l','p'
11.78,'d','p'
13.16,'l','p'
14.23,'l','p'
13.95,'l','p'
13.71,'l','p'
15.01,'d','p'
15.19,'l','p'
15.65,'d','p'
13.72,'l','p'
12.72,'g','p'
10.98,'l','p'
16.15,'d','p'
12.47,'g','p'
9.21,'d','p'
10.38,'l','p'
13.65,'l','p'
14.42,'l','p'
11.73,'d','p'
9.37,'g','p'
15.4,'g','p'
15.04,'d','p'
12.52,'d','p'
17.14,'d','p'
13.42,'g','p'
15.59,'g','p'
15.08,'g','p'
15.97,'g','p'
11.43,'d','p'
15.54,'l','p'
15.81,'l','p'
15.24,'l','p'
14.24,'g','p'
14.29,'d','p'
14.24,'l','p'
15.41,'d','p'
10.75,'d','p'
10.68,'l','p'
15.51,'d','p'
14.64,'l','p'
13.27,'d','p'
13.39,'l','p'
14.35,'d','p'
15.24,'g','p'
12.05,'d','p'
11.81,'l','p'
12.07,'d','p'
15.07,'l','p'
13.74,'d','p'
12.67,'g','p'
12.18,'d','p'
8.84,'l','p'
11.65,'d','p'
14.02,'g','p'
10.1,'l','p'
15.45,'l','p'
13.14,'l','p'
12.78,'d','p'
12.36,'d','p'
15.19,'l','p'
16.48,'g','p'
14.56,'l','p'
8.11,'g','p'
16.6,'d','p'
12.1,'l','p'
15.27,'g','p'
14.2,'d','p'
13.65,'g','p'
10.68,'g','p'
10.53,'l','p'
12.73,'d','p'
13.96,'l','p'
12.1,'g','p'
11.32,'l','p'
14.12,'d','p'
11.97,'l','p'
12.46,'d','p'
11.94,'l','p'
11.54,'g','p'
15.12,'d','p'
13.59,'g','p'
13.96,'g','p'
15.43,'g','p'
13.81,'d','p'
13.08,'d','p'
17.07,'d','p'
16.03,'d','p'
11.11,'d','p'
16.31,'l','p'
13.46,'g','p'
15.29,'l','p'
18.69,'l','p'
11.79,'l','p'
13.96,'d','p'
16.3,'l','p'
10.73,'l','p'
13.71,'l','p'
14.14,'l','p'
12.85,'d','p'
16.41,'g','p'
17.01,'d','p'
11.71,'g','p'
11.32,'l','p'
11.76,'g','p'
20.91,'d','p'
10.19,'d','p'
13.14,'d','p'
14.01,'d','p'
17.26,'d','p'
16.83,'g','p'
14.82,'d','p'
9.78,'g','p'
11.57,'d','p'
15.08,'d','p'
17.62,'l','p'
16.3,'l','p'
15.79,'l','p'
13.82,'d','p'
16.53,'l','p'
13.04,'g','p'
7.33,'d','p'
12.79,'d','p'
12.35,'d','p'
15.33,'d','p'
14.99,'l','p'
13.57,'g','p'
13.6,'l','p'
11.15,'g','p'
11.08,'d','p'
14.2,'d','p'
10.82,'d','p'
12.82,'g','p'
11.87,'d','p'
16.5,'g','p'
13.17,'l','p'
15.54,'d','p'
9.9,'l','p'
15.33,'d','p'
13.4,'l','p'
16.44,'l','p'
8.4,'l','p'
10.47,'d','p'
9.69,'g','p'
15.2,'l','p'
15.33,'g','p'
15.69,'d','p'
8.78,'d','p'
14.01,'l','p'
10.54,'d','p'
14.6,'l','p'
18.73,'l','p'
9.56,'d','p'
11.61,'d','p'
15.74,'d','p'
12.38,'d','p'
15.54,'d','p'
10.56,'g','p'
16.19,'d','p'
12.42,'g','p'
8.05,'g','p'
14.43,'l','p'
13.56,'d','p'
10.66,'d','p'
11.81,'d','p'
9.39,'g','p'
13.82,'g','p'
13.86,'g','p'
14.63,'g','p'
8.85,'g','p'
13.34,'l','p'
11.66,'d','p'
12.34,'d','p'
12.26,'l','p'
10.89,'g','p'
13.08,'l','p'
11.73,'d','p'
17.76,'l','p'
16.45,'l','p'
11.23,'l','p'
16.14,'d','p'
13.12,'g','p'
10.98,'d','p'
13.39,'d','p'
12.39,'g','p'
14.86,'l','p'
17.98,'d','p'
15.52,'g','p'
16.09,'l','p'
12.59,'l','p'
11.92,'l','p'
15.07,'g','p'
10.22,'l','p'
13.26,'d','p'
15.78,'d','p'
14.76,'g','p'
13.8,'g','p'
13.46,'d','p'
16.36,'l','p'
17.59,'g','p'
10.91,'d','p'
16.69,'g','p'
14.45,'g','p'
15.33,'g','p'
11.67,'d','p'
12.76,'d','p'
16.71,'d','p'
14.86,'g','p'
14.63,'g','p'
12.57,'d','p'
15.33,'g','p'
15.68,'l','p'
13.72,'l','p'
15.76,'d','p'
12.4,'d','p'
14.95,'g','p'
14.14,'l','p'
12.89,'l','p'
9.59,'g','p'
13.74,'l','p'
15.18,'d','p'
14.61,'l','p'
14.96,'g','p'
8.25,'g','p'
13.01,'d','p'
11.87,'l','p'
14.25,'g','p'
11.98,'g','p'
12.21,'g','p'
13.09,'d','p'
16.18,'d','p'
13.75,'l','p'
15.86,'g','p'
11.91,'g','p'
13.19,'l','p'
13,'d','p'
9.65,'g','p'
11,'l','p'
14.41,'g','p'
10.26,'d','p'
10.42,'g','p'
15.53,'d','p'
13.46,'d','p'
10.9,'l','p'
18.04,'g','p'
13.27,'d','p'
18.53,'d','p'
11.93,'l','p'
18.42,'l','p'
14.67,'d','p'
9.79,'d','p'
15.75,'l','p'
17.65,'d','p'
15.58,'g','p'
10.54,'g','p'
17.35,'l','p'
14.75,'l','p'
11.56,'d','p'
16.55,'g','p'
14.44,'l','p'
13.56,'d','p'
9.12,'g','p'
12.28,'d','p'
13,'l','p'
6.53,'d','p'
6,'d','p'
6.93,'d','p'
7.19,'d','p'
6.11,'d','p'
6.1,'d','p'
7.19,'d','p'
9.96,'d','p'
7.14,'d','p'
8.02,'d','p'
7.55,'d','p'
6.77,'d','p'
5.76,'d','p'
6.52,'d','p'
6.86,'d','p'
6.35,'d','p'
6.09,'d','p'
6.89,'d','p'
7.52,'d','p'
6.99,'d','p'
6.25,'d','p'
8.17,'d','p'
7.91,'d','p'
4.67,'d','p'
7.12,'d','p'
6.81,'d','p'
5.42,'d','p'
7.08,'d','p'
6.69,'d','p'
6.04,'d','p'
8.3,'d','p'
7.34,'d','p'
6.21,'d','p'
5.19,'d','p'
7.25,'d','p'
6.8,'d','p'
4.45,'d','p'
7.41,'d','p'
7.29,'d','p'
8.24,'d','p'
6.48,'d','p'
6.01,'d','p'
6.86,'d','p'
7.92,'d','p'
8.13,'d','p'
8.1,'d','p'
7.24,'d','p'
7.83,'d','p'
7.82,'d','p'
6.35,'d','p'
8.7,'d','p'
5.75,'d','p'
6.96,'d','p'
7,'d','p'
5.89,'d','p'
7.07,'d','p'
7.45,'d','p'
6.06,'d','p'
8.89,'d','p'
5.63,'d','p'
6.76,'d','p'
3.94,'d','p'
7.01,'d','p'
6.5,'d','p'
7.54,'d','p'
6.24,'d','p'
5.21,'d','p'
6.62,'d','p'
5.56,'d','p'
7.51,'d','p'
6.57,'d','p'
5.73,'d','p'
7.21,'d','p'
8.1,'d','p'
5.72,'d','p'
4.95,'d','p'
8.58,'d','p'
6.57,'d','p'
8.42,'d','p'
7.86,'d','p'
7.01,'d','p'
7.67,'d','p'
7.25,'d','p'
7.84,'d','p'
7.89,'d','p'
6.61,'d','p'
8.16,'d','p'
6.36,'d','p'
7.18,'d','p'
6.5,'d','p'
7.3,'d','p'
6.7,'d','p'
7.74,'d','p'
8,'d','p'
6.13,'d','p'
6.44,'d','p'
6.72,'d','p'
6.01,'d','p'
7.32,'d','p'
5.48,'d','p'
7.01,'d','p'
7.29,'d','p'
7.44,'d','p'
8.06,'d','p'
8.41,'d','p'
6.91,'d','p'
7.86,'d','p'
6.19,'d','p'
6.81,'d','p'
6.93,'d','p'
7.45,'d','p'
6.45,'d','p'
6.61,'d','p'
6.8,'d','p'
7.41,'d','p'
6.61,'d','p'
6.27,'d','p'
7.51,'d','p'
7.04,'d','p'
7.75,'d','p'
6.58,'d','p'
6.4,'d','p'
7.62,'d','p'
7.81,'d','p'
5.83,'d','p'
7.03,'d','p'
5.69,'d','p'
7.96,'d','p'
6.68,'d','p'
7.32,'d','p'
5.23,'d','p'
7.78,'d','p'
8.32,'d','p'
5.98,'d','p'
6.4,'d','p'
6.83,'d','p'
5.55,'d','p'
7,'d','p'
6.49,'d','p'
6.51,'d','p'
8.14,'d','p'
6.41,'d','p'
8.23,'d','p'
6.49,'d','p'
7.17,'d','p'
6.76,'d','p'
6.72,'d','p'
5.74,'d','p'
5.82,'d','p'
5.62,'d','p'
8.37,'d','p'
8.14,'d','p'
5.23,'d','p'
7.66,'d','p'
4.09,'d','p'
5.02,'d','p'
8.01,'d','p'
5.77,'d','p'
5.78,'d','p'
8.52,'d','p'
7.38,'d','p'
7.08,'d','p'
7.76,'d','p'
5.83,'d','p'
6.57,'d','p'
7.25,'d','p'
7.06,'d','p'
7.78,'d','p'
6.46,'d','p'
6.12,'d','p'
6.52,'d','p'
5.62,'d','p'
8.52,'d','p'
5.87,'d','p'
6.27,'d','p'
7.5,'d','p'
8.46,'d','p'
4.68,'d','p'
7.23,'d','p'
7.47,'d','p'
6.34,'d','p'
6.4,'d','p'
7.53,'d','p'
7.22,'d','p'
7.8,'d','p'
5.52,'d','p'
6.5,'d','p'
6.75,'d','p'
5.35,'d','p'
6.19,'d','p'
8.71,'d','p'
5.63,'d','p'
7.45,'d','p'
6.76,'d','p'
7.59,'d','p'
6.85,'d','p'
7.17,'d','p'
6.97,'d','p'
5.2,'d','p'
7.6,'d','p'
5.64,'d','p'
6.42,'d','p'
6.95,'d','p'
6.53,'d','p'
6.55,'d','p'
6.9,'d','p'
7.7,'d','p'
6.13,'d','p'
6.9,'d','p'
7.53,'d','p'
5.94,'d','p'
6.17,'d','p'
7.84,'d','p'
7.25,'d','p'
5.17,'d','p'
8.99,'d','p'
6.9,'d','p'
7.11,'d','p'
8.26,'d','p'
8.51,'d','p'
6.41,'d','p'
7.16,'d','p'
6.18,'d','p'
7.13,'d','p'
7.76,'d','p'
7.3,'d','p'
7.88,'d','p'
8.56,'d','p'
8.36,'d','p'
8.83,'d','p'
7.46,'d','p'
9.1,'d','p'
7.7,'d','p'
7.26,'d','p'
7.4,'d','p'
6.94,'d','p'
6.2,'d','p'
8.46,'d','p'
8.2,'d','p'
6.63,'d','p'
8.08,'d','p'
8.11,'d','p'
5.37,'d','p'
6.79,'d','p'
4.66,'d','p'
6.06,'d','p'
7.65,'d','p'
6.99,'d','p'
8.92,'d','p'
5.09,'d','p'
7.83,'d','p'
7.72,'d','p'
5.83,'d','p'
6.21,'d','p'
3.97,'d','p'
5.51,'d','p'
7.49,'d','p'
7.1,'d','p'
7.88,'d','p'
7.96,'d','p'
6.16,'d','p'
5.51,'d','p'
8.18,'d','p'
6.07,'d','p'
9.03,'d','p'
5.15,'d','p'
7.46,'d','p'
7.02,'d','p'
7.81,'d','p'
8.49,'d','p'
7.64,'d','p'
5.95,'d','p'
6.79,'d','p'
8.32,'d','p'
7.23,'d','p'
6.97,'d','p'
8.21,'d','p'
5.93,'d','p'
7.95,'d','p'
7.2,'d','p'
8.03,'d','p'
7.18,'d','p'
7.1,'d','p'
8.03,'d','p'
6.02,'d','p'
5.96,'d','p'
5.36,'d','p'
7.34,'d','p'
7.46,'d','p'
6.93,'d','p'
4.54,'d','p'
7.56,'d','p'
6.69,'d','p'
6.76,'d','p'
5.23,'d','p'
5.49,'d','p'
7.49,'d','p'
6.48,'d','p'
7.62,'d','p'
8.26,'d','p'
5.55,'d','p'
5.72,'d','p'
8.65,'d','p'
6.57,'d','p'
6.91,'d','p'
7.09,'d','p'
9.11,'d','p'
6.86,'d','p'
7.15,'d','p'
5.03,'d','p'
6.72,'d','p'
6.86,'d','p'
7.17,'d','p'
7.72,'d','p'
7.79,'d','p'
7.54,'d','p'
6.66,'d','p'
8.42,'d','p'
5.84,'d','p'
7.64,'d','p'
8.68,'d','p'
4.28,'d','p'
7.35,'d','p'
7.18,'d','p'
7.45,'d','p'
6.2,'d','p'
5.75,'d','p'
5.06,'d','p'
6.34,'d','p'
6.61,'d','p'
8.21,'d','p'
7.45,'d','p'
7.52,'d','p'
7.66,'d','p'
7.18,'d','p'
6.62,'d','p'
5.1,'d','p'
8.75,'d','p'
4.75,'d','p'
7.52,'d','p'
7.63,'d','p'
7.27,'d','p'
6.69,'d','p'
6.8,'d','p'
7.63,'d','p'
7.24,'d','p'
6.5,'d','p'
6.63,'d','p'
7.3,'d','p'
6.09,'d','p'
7.93,'d','p'
7.77,'d','p'
6.52,'d','p'
5.25,'d','p'
4.5,'d','p'
7.05,'d','p'
5.61,'d','p'
5.74,'d','p'
5.98,'d','p'
5.43,'d','p'
4.09,'d','p'
4.61,'d','p'
6.04,'d','p'
4.25,'d','p'
6.14,'d','p'
6.57,'d','p'
5.88,'d','p'
5.78,'d','p'
5.35,'d','p'
5.77,'d','p'
4.93,'d','p'
6.27,'d','p'
6.75,'d','p'
4.57,'d','p'
5.82,'d','p'
4.52,'d','p'
4.65,'d','p'
5.73,'d','p'
6.84,'d','p'
4.3,'d','p'
5.21,'d','p'
5.79,'d','p'
5.25,'d','p'
5.2,'d','p'
4.87,'d','p'
6.14,'d','p'
5.8,'d','p'
7.45,'d','p'
6.07,'d','p'
4.47,'d','p'
4.87,'d','p'
5.05,'d','p'
5.73,'d','p'
5.2,'d','p'
4.76,'d','p'
4.44,'d','p'
5.48,'d','p'
5.99,'d','p'
6.12,'d','p'
5.25,'d','p'
6.16,'d','p'
5.53,'d','p'
4.08,'d','p'
6.73,'d','p'
6.34,'d','p'
4.85,'d','p'
5.78,'d','p'
4.21,'d','p'
5.52,'d','p'
4.39,'d','p'
6.38,'d','p'
4.09,'d','p'
5.64,'d','p'
6.32,'d','p'
5.62,'d','p'
6.28,'d','p'
7.67,'d','p'
4.59,'d','p'
4.83,'d','p'
5.72,'d','p'
5.46,'d','p'
5.85,'d','p'
6.74,'d','p'
4.07,'d','p'
4.68,'d','p'
5.15,'d','p'
4.8,'d','p'
6.25,'d','p'
5.08,'d','p'
5.5,'d','p'
4.88,'d','p'
5.76,'d','p'
5.38,'d','p'
5.45,'d','p'
6.03,'d','p'
4.6,'d','p'
6.17,'d','p'
5.5,'d','p'
6.3,'d','p'
3.82,'d','p'
5.93,'d','p'
5.1,'d','p'
6.81,'d','p'
4.71,'d','p'
5.17,'d','p'
4.72,'d','p'
5.38,'d','p'
5.08,'d','p'
6.08,'d','p'
5.8,'d','p'
5.49,'d','p'
5.45,'d','p'
5.32,'d','p'
4.94,'d','p'
5.06,'d','p'
5.57,'d','p'
4.65,'d','p'
5.63,'d','p'
6.41,'d','p'
5.69,'d','p'
4.9,'d','p'
5.93,'d','p'
6.23,'d','p'
6.14,'d','p'
4.42,'d','p'
7.53,'d','p'
5.29,'d','p'
5.48,'d','p'
4.43,'d','p'
5.35,'d','p'
5.86,'d','p'
5.05,'d','p'
4.81,'d','p'
5.34,'d','p'
5.17,'d','p'
5.3,'d','p'
4.88,'d','p'
5.63,'d','p'
5.11,'d','p'
4.73,'d','p'
6.63,'d','p'
6.07,'d','p'
4.66,'d','p'
5.83,'d','p'
5,'d','p'
5.68,'d','p'
5.21,'d','p'
5.28,'d','p'
5.89,'d','p'
4.99,'d','p'
4.83,'d','p'
4.47,'d','p'
6.27,'d','p'
5.04,'d','p'
5.02,'d','p'
6.21,'d','p'
6.61,'d','p'
6.49,'d','p'
4.89,'d','p'
5.17,'d','p'
5.71,'d','p'
5.65,'d','p'
4.8,'d','p'
6.28,'d','p'
6.29,'d','p'
4.47,'d','p'
5.98,'d','p'
3.66,'d','p'
7.08,'d','p'
5.04,'d','p'
6.78,'d','p'
6,'d','p'
6.67,'d','p'
6.63,'d','p'
5.61,'d','p'
6.13,'d','p'
4.96,'d','p'
6.28,'d','p'
6.49,'d','p'
6.71,'d','p'
7.33,'d','p'
4.25,'d','p'
6.36,'d','p'
4.82,'d','p'
6.65,'d','p'
5.96,'d','p'
6.06,'d','p'
4.99,'d','p'
5.32,'d','p'
6.21,'d','p'
5.92,'d','p'
5.58,'d','p'
4.76,'d','p'
5.42,'d','p'
5.91,'d','p'
5.6,'d','p'
6.71,'d','p'
6.21,'d','p'
5.97,'d','p'
6.21,'d','p'
4.67,'d','p'
5.9,'d','p'
5.33,'d','p'
5.63,'d','p'
4.81,'d','p'
5.95,'d','p'
6.21,'d','p'
7.03,'d','p'
5.43,'d','p'
5.34,'d','p'
5.08,'d','p'
4.01,'d','p'
6.59,'d','p'
5.14,'d','p'
5.47,'d','p'
4.42,'d','p'
4.89,'d','p'
5.46,'d','p'
5.23,'d','p'
6.5,'d','p'
3.61,'d','p'
6.21,'d','p'
6.36,'d','p'
4.78,'d','p'
3.93,'d','p'
4.34,'d','p'
5.72,'d','p'
5.02,'d','p'
5.6,'d','p'
6.39,'d','p'
6.38,'d','p'
4.45,'d','p'
6.48,'d','p'
4.5,'d','p'
4.4,'d','p'
6.58,'d','p'
3.69,'d','p'
5.37,'d','p'
6.05,'d','p'
6.87,'d','p'
6.67,'d','p'
4.62,'d','p'
4.34,'d','p'
6.19,'d','p'
5.38,'d','p'
5.67,'d','p'
5.2,'d','p'
4.71,'d','p'
4.13,'d','p'
6.3,'d','p'
3.17,'d','p'
5.13,'d','p'
5.89,'d','p'
4.9,'d','p'
5.18,'d','p'
6.8,'d','p'
4.58,'d','p'
6.02,'d','p'
6.38,'d','p'
6.07,'d','p'
5.43,'d','p'
5.51,'d','p'
6,'d','p'
3.68,'d','p'
5.31,'d','p'
5.29,'d','p'
3.25,'d','p'
4.5,'d','p'
5.86,'d','p'
3.45,'d','p'
5.63,'d','p'
3.37,'d','p'
5.37,'d','p'
5.77,'d','p'
5.12,'d','p'
6.54,'d','p'
5.45,'d','p'
4.42,'d','p'
4.01,'d','p'
6.66,'d','p'
5.39,'d','p'
4.78,'d','p'
5.75,'d','p'
5.16,'d','p'
5.64,'d','p'
6.16,'d','p'
6.84,'d','p'
5.17,'d','p'
4.9,'d','p'
5.1,'d','p'
4.7,'d','p'
6.12,'d','p'
4.66,'d','p'
5.38,'d','p'
6.5,'d','p'
4.12,'d','p'
6,'d','p'
5.59,'d','p'
6.34,'d','p'
7.18,'d','p'
6.06,'d','p'
5.22,'d','p'
6.31,'d','p'
6.91,'d','p'
3.97,'d','p'
5.62,'d','p'
6.81,'d','p'
5.61,'d','p'
4.29,'d','p'
4.19,'d','p'
5.66,'d','p'
5.67,'d','p'
6.14,'d','p'
4.9,'d','p'
5.15,'d','p'
5.47,'d','p'
4.89,'d','p'
5.43,'d','p'
5.3,'d','p'
5.59,'d','p'
5.31,'d','p'
6.38,'d','p'
4.28,'d','p'
5.67,'d','p'
4.62,'d','p'
5.24,'d','p'
4.65,'d','p'
6.08,'d','p'
6.71,'d','p'
4.74,'d','p'
4.43,'d','p'
6.61,'d','p'
3.8,'d','p'
5.94,'d','p'
5.57,'d','p'
5.8,'d','p'
5.69,'d','p'
5.41,'d','p'
4.82,'d','p'
5.54,'d','p'
5.68,'d','p'
4.86,'d','p'
5.65,'d','p'
6.24,'d','p'
4.05,'d','p'
5.24,'d','p'
5.11,'d','p'
6.01,'d','p'
5.5,'d','p'
6.19,'d','p'
5.52,'d','p'
6.52,'d','p'
5.2,'d','p'
5.41,'d','p'
5.4,'d','p'
6.36,'d','p'
5.02,'d','p'
4.46,'d','p'
6.05,'d','p'
5.69,'d','p'
5.13,'d','p'
3.37,'d','p'
6.08,'d','p'
4.73,'d','p'
4.67,'d','p'
3.6,'d','p'
3.11,'d','p'
3.5,'d','p'
2.82,'d','p'
3.18,'d','p'
3.16,'d','p'
3.15,'d','p'
3.59,'d','p'
3.18,'d','p'
2.98,'d','p'
2.62,'d','p'
2.72,'d','p'
2.86,'d','p'
3.44,'d','p'
2.95,'d','p'
2.56,'d','p'
2.86,'d','p'
3.15,'d','p'
3.21,'d','p'
3.56,'d','p'
2.82,'d','p'
3.42,'d','p'
2.89,'d','p'
3.06,'d','p'
3.02,'d','p'
3.1,'d','p'
2.36,'d','p'
2.87,'d','p'
2.51,'d','p'
3.06,'d','p'
2.88,'d','p'
2.67,'d','p'
2.36,'d','p'
3.41,'d','p'
2.8,'d','p'
3.52,'d','p'
2.97,'d','p'
3.33,'d','p'
2.92,'d','p'
3.35,'d','p'
2.82,'d','p'
2.6,'d','p'
2.91,'d','p'
3.1,'d','p'
3,'d','p'
3.01,'d','p'
3.21,'d','p'
2.25,'d','p'
3.22,'d','p'
2.98,'d','p'
2.88,'d','p'
3.05,'d','p'
2.8,'d','p'
2.98,'d','p'
2.24,'d','p'
3.09,'d','p'
3.23,'d','p'
2.58,'d','p'
2.74,'d','p'
2.88,'d','p'
2.96,'d','p'
2.83,'d','p'
2.86,'d','p'
3.43,'d','p'
2.55,'d','p'
2.49,'d','p'
2.67,'d','p'
2.48,'d','p'
3.02,'d','p'
2.91,'d','p'
2.42,'d','p'
3.27,'d','p'
3.38,'d','p'
3.34,'d','p'
2.85,'d','p'
2.92,'d','p'
3.42,'d','p'
2.94,'d','p'
3.08,'d','p'
3.1,'d','p'
2.74,'d','p'
3.05,'d','p'
3.52,'d','p'
2.93,'d','p'
3.18,'d','p'
2.92,'d','p'
2.83,'d','p'
3.19,'d','p'
2.81,'d','p'
2.38,'d','p'
2.94,'d','p'
2.87,'d','p'
3,'d','p'
2.38,'d','p'
2.79,'d','p'
3.19,'d','p'
3.01,'d','p'
3.62,'d','p'
2.82,'d','p'
3.24,'d','p'
2.87,'d','p'
3.16,'d','p'
2.66,'d','p'
2.88,'d','p'
2.88,'d','p'
2.94,'d','p'
2.87,'d','p'
2.88,'d','p'
3.26,'d','p'
2.86,'d','p'
2.68,'d','p'
3.42,'d','p'
3.2,'d','p'
3.25,'d','p'
3.05,'d','p'
2.82,'d','p'
3.18,'d','p'
3.29,'d','p'
2.6,'d','p'
2.75,'d','p'
2.64,'d','p'
3.45,'d','p'
2.84,'d','p'
2.67,'d','p'
3.18,'d','p'
2.58,'d','p'
3.32,'d','p'
3.17,'d','p'
2.44,'d','p'
2.61,'d','p'
2.95,'d','p'
2.45,'d','p'
2.75,'d','p'
2.92,'d','p'
2.68,'d','p'
3.09,'d','p'
2.98,'d','p'
2.96,'d','p'
2.41,'d','p'
2.81,'d','p'
2.61,'d','p'
3.03,'d','p'
3.05,'d','p'
3.12,'d','p'
3.06,'d','p'
2.85,'d','p'
3.23,'d','p'
2.81,'d','p'
3.06,'d','p'
3.45,'d','p'
2.66,'d','p'
3.09,'d','p'
3.02,'d','p'
3.4,'d','p'
3.5,'d','p'
3.45,'d','p'
2.8,'d','p'
3.52,'d','p'
2.82,'d','p'
2.52,'d','p'
3.35,'d','p'
2.51,'d','p'
2.71,'d','p'
3.02,'d','p'
2.96,'d','p'
2.49,'d','p'
2.81,'d','p'
2.65,'d','p'
2.5,'d','p'
2.46,'d','p'
2.49,'d','p'
2.41,'d','p'
2.48,'d','p'
3.09,'d','p'
2.73,'d','p'
3.7,'d','p'
3.15,'d','p'
3.05,'d','p'
3.14,'d','p'
3.24,'d','p'
2.98,'d','p'
2.92,'d','p'
2.74,'d','p'
3.79,'d','p'
3.4,'d','p'
2.8,'d','p'
2.96,'d','p'
2.76,'d','p'
3.29,'d','p'
2.83,'d','p'
2.74,'d','p'
2.54,'d','p'
2.95,'d','p'
3.37,'d','p'
2.28,'d','p'
3.81,'d','p'
3.03,'d','p'
3.28,'d','p'
3.39,'d','p'
2.6,'d','p'
3.45,'d','p'
3.21,'d','p'
2.86,'d','p'
3.08,'d','p'
3.15,'d','p'
3.55,'d','p'
2.85,'d','p'
2.38,'d','p'
3.17,'d','p'
2.94,'d','p'
2.74,'d','p'
3.26,'d','p'
2.53,'d','p'
2.86,'d','p'
3.06,'d','p'
3.37,'d','p'
2.84,'d','p'
2.68,'d','p'
2.96,'d','p'
3.15,'d','p'
3.04,'d','p'
2.87,'d','p'
2.74,'d','p'
3.07,'d','p'
2.96,'d','p'
2.88,'d','p'
2.64,'d','p'
3.38,'d','p'
3.08,'d','p'
2.7,'d','p'
2.74,'d','p'
3.67,'d','p'
3.33,'d','p'
2.89,'d','p'
3.3,'d','p'
2.84,'d','p'
3.64,'d','p'
2.98,'d','p'
3.23,'d','p'
3.36,'d','p'
3.14,'d','p'
2.9,'d','p'
3.06,'d','p'
2.9,'d','p'
3.42,'d','p'
2.85,'d','p'
2.82,'d','p'
2.91,'d','p'
3.03,'d','p'
2.86,'d','p'
3.09,'d','p'
2.53,'d','p'
3.32,'d','p'
3.4,'d','p'
2.04,'d','p'
2.6,'d','p'
2.93,'d','p'
3.3,'d','p'
2.55,'d','p'
2.91,'d','p'
3.09,'d','p'
2.96,'d','p'
3.28,'d','p'
2.43,'d','p'
2.96,'d','p'
2.7,'d','p'
2.99,'d','p'
3.03,'d','p'
2.86,'d','p'
2.82,'d','p'
2.44,'d','p'
2.91,'d','p'
3.83,'d','p'
3.17,'d','p'
3.52,'d','p'
2.68,'d','p'
2.11,'d','p'
3.97,'d','p'
2.66,'d','p'
3.43,'d','p'
3.68,'d','p'
2.87,'d','p'
3.05,'d','p'
2.67,'d','p'
3.18,'d','p'
3.42,'d','p'
3.18,'d','p'
3.78,'d','p'
3.1,'d','p'
2.75,'d','p'
3.2,'d','p'
3.61,'d','p'
3.06,'d','p'
2.84,'d','p'
2.74,'d','p'
3.22,'d','p'
3.2,'d','p'
3.33,'d','p'
3.07,'d','p'
2.93,'d','p'
2.71,'d','p'
2.73,'d','p'
3.51,'d','p'
2.34,'d','p'
2.94,'d','p'
3.38,'d','p'
2.77,'d','p'
3.79,'d','p'
2.85,'d','p'
2.85,'d','p'
2.86,'d','p'
2.98,'d','p'
2.68,'d','p'
3.23,'d','p'
2.54,'d','p'
2.69,'d','p'
2.64,'d','p'
2.83,'d','p'
2.81,'d','p'
3.06,'d','p'
2.57,'d','p'
2.44,'d','p'
3.18,'d','p'
2.46,'d','p'
2.79,'d','p'
3.02,'d','p'
2.63,'d','p'
3.51,'d','p'
2.97,'d','p'
2.83,'d','p'
2.25,'d','p'
3.12,'d','p'
3.36,'d','p'
2.87,'d','p'
2.98,'d','p'
3.1,'d','p'
3.04,'d','p'
2.5,'d','p'
2.9,'d','p'
2.31,'d','p'
2.98,'d','p'
3.48,'d','p'
2,'d','p'
2.72,'d','p'
3,'d','p'
2.27,'d','p'
3.53,'d','p'
2.96,'d','p'
2.87,'d','p'
3.09,'d','p'
2.5,'d','p'
3.19,'d','p'
2.48,'d','p'
2.96,'d','p'
3.39,'d','e'
3.16,'d','e'
3.84,'d','e'
3.64,'d','e'
3.45,'d','e'
2.94,'d','e'
2.93,'d','e'
2.68,'d','e'
2.61,'d','e'
2.81,'d','e'
4.03,'d','e'
3.1,'d','e'
3.32,'d','e'
3.01,'d','e'
2.67,'d','e'
4.05,'d','e'
4.25,'d','e'
3.87,'d','e'
3.58,'d','e'
3.67,'d','e'
3.28,'d','e'
4.11,'d','e'
3.88,'d','e'
3.67,'d','e'
2.66,'d','e'
3.97,'d','e'
3.67,'d','e'
2.97,'d','e'
3.71,'d','e'
3.31,'d','e'
3.38,'d','e'
3.26,'d','e'
3.03,'d','e'
2.72,'d','e'
4.37,'d','e'
3.14,'d','e'
3.32,'d','e'
4.28,'d','e'
3.33,'d','e'
3.3,'d','e'
3.72,'d','e'
3.94,'d','e'
2.75,'d','e'
4.01,'d','e'
3.52,'d','e'
3.43,'d','e'
2.93,'d','e'
3.97,'d','e'
4.16,'d','e'
3.15,'d','e'
2.74,'d','e'
3.05,'d','e'
4.52,'d','e'
2.56,'d','e'
2.89,'d','e'
3.01,'d','e'
3.8,'d','e'
3.85,'d','e'
3.3,'d','e'
3.25,'d','e'
2.78,'d','e'
3.22,'d','e'
2.92,'d','e'
3.77,'d','e'
2.81,'d','e'
3.93,'d','e'
3.32,'d','e'
3.26,'d','e'
3.42,'d','e'
3.44,'d','e'
2.79,'d','e'
3.38,'d','e'
3.18,'d','e'
3.39,'d','e'
3.23,'d','e'
3.65,'d','e'
3.75,'d','e'
3.15,'d','e'
3.01,'d','e'
3.43,'d','e'
3.7,'d','e'
3.45,'d','e'
2.14,'d','e'
2.6,'d','e'
3.08,'d','e'
3.36,'d','e'
3.1,'d','e'
3.43,'d','e'
3.63,'d','e'
3.59,'d','e'
4.36,'d','e'
3.49,'d','e'
3.91,'d','e'
3.53,'d','e'
3.82,'d','e'
3.01,'d','e'
3.64,'d','e'
3.54,'d','e'
3.31,'d','e'
3.78,'d','e'
4.02,'d','e'
3.89,'d','e'
4.05,'d','e'
3.97,'d','e'
3.7,'d','e'
3.23,'d','e'
3.37,'d','e'
3.68,'d','e'
3.75,'d','e'
4.03,'d','e'
3.84,'d','e'
3.4,'d','e'
4.44,'d','e'
2.77,'d','e'
3.16,'d','e'
3.11,'d','e'
3.36,'d','e'
4.02,'d','e'
3.32,'d','e'
3.61,'d','e'
2.94,'d','e'
4.16,'d','e'
2.67,'d','e'
3.39,'d','e'
3.64,'d','e'
3.81,'d','e'
3.62,'d','e'
4.04,'d','e'
4.04,'d','e'
2.6,'d','e'
3.98,'d','e'
3.1,'d','e'
3.14,'d','e'
3.37,'d','e'
3.04,'d','e'
3.52,'d','e'
3.49,'d','e'
2.97,'d','e'
2.96,'d','e'
3.12,'d','e'
3.77,'d','e'
3.46,'d','e'
4.45,'d','e'
2.95,'d','e'
3.2,'d','e'
3.55,'d','e'
3.71,'d','e'
3.4,'d','e'
3.61,'d','e'
4.04,'d','e'
3.35,'d','e'
2.91,'d','e'
3.59,'d','e'
3.62,'d','e'
4.3,'d','e'
3.57,'d','e'
3.14,'d','e'
3.94,'d','e'
2.76,'d','e'
3.82,'d','e'
4.17,'d','e'
3.44,'d','e'
4.66,'d','e'
4,'d','e'
3.16,'d','e'
3.18,'d','e'
4.16,'d','e'
4.06,'d','e'
3.34,'d','e'
4.01,'d','e'
3.39,'d','e'
3.18,'d','e'
3.49,'d','e'
3.99,'d','e'
3.88,'d','e'
2.52,'d','e'
3.85,'d','e'
3.77,'d','e'
2.87,'d','e'
3.15,'d','e'
3.72,'d','e'
4.22,'d','e'
3.18,'d','e'
3.94,'d','e'
3.4,'d','e'
1.89,'d','e'
2.24,'d','e'
3.82,'d','e'
3.59,'d','e'
2.72,'d','e'
3.86,'d','e'
2.94,'d','e'
4.72,'d','e'
3.21,'d','e'
3.32,'d','e'
4.01,'d','e'
3.46,'d','e'
2.99,'d','e'
3.79,'d','e'
3.24,'d','e'
4.12,'d','e'
3.77,'d','e'
3.47,'d','e'
2.95,'d','e'
4.43,'d','e'
2.65,'d','e'
3.43,'d','e'
3.74,'d','e'
2.87,'d','e'
3.64,'d','e'
4.15,'d','e'
3.73,'d','e'
3.69,'d','e'
3.95,'d','e'
3.84,'d','e'
3.27,'d','e'
3.85,'d','e'
4.32,'d','e'
3.62,'d','e'
3.7,'d','e'
3.75,'d','e'
2.59,'d','e'
4.09,'d','e'
3.19,'d','e'
3.92,'d','e'
3.89,'d','e'
4.46,'d','e'
3.42,'d','e'
3.48,'d','e'
4.27,'d','e'
3.52,'d','e'
2.27,'d','e'
4.09,'d','e'
4.26,'d','e'
4.34,'d','e'
3.49,'d','e'
3.53,'d','e'
2.97,'d','e'
3.98,'d','e'
4.08,'d','e'
4.4,'d','e'
3.78,'d','e'
3.59,'d','e'
2.98,'d','e'
3.04,'d','e'
3.59,'d','e'
4.26,'d','e'
3.56,'d','e'
4.3,'d','e'
2.7,'d','e'
3.49,'d','e'
3.89,'d','e'
3.37,'d','e'
3.13,'d','e'
3.55,'d','e'
3.7,'d','e'
3.62,'d','e'
2.87,'d','e'
3.19,'d','e'
3.58,'d','e'
3.58,'d','e'
3.95,'d','e'
3.37,'d','e'
2.97,'d','e'
2.75,'d','e'
3.96,'d','e'
4.07,'d','e'
3.24,'d','e'
3.37,'d','e'
3.76,'d','e'
3.2,'d','e'
4.03,'d','e'
3.51,'d','e'
2.95,'d','e'
3.27,'d','e'
3.81,'d','e'
3.55,'d','e'
3.74,'d','e'
3.16,'d','e'
3.65,'d','e'
2.92,'d','e'
2.97,'d','e'
3.36,'d','e'
2.82,'d','e'
3.7,'d','e'
3.1,'d','e'
3.3,'d','e'
3.7,'d','e'
3.98,'d','e'
3.19,'d','e'
4.03,'d','e'
2.98,'d','e'
4.06,'d','e'
3.47,'d','e'
3.98,'d','e'
3.05,'d','e'
3.2,'d','e'
3.45,'d','e'
2.92,'d','e'
2.94,'d','e'
4.18,'d','e'
3.17,'d','e'
4.4,'d','e'
3.76,'d','e'
4.21,'d','e'
3.05,'d','e'
3.71,'d','e'
3.52,'d','e'
4.12,'d','e'
2.54,'d','e'
2.96,'d','e'
4.62,'d','e'
3.14,'d','e'
3.23,'d','e'
4.3,'d','e'
3.31,'d','e'
3.45,'d','e'
2.69,'d','e'
2.82,'d','e'
3.49,'d','e'
3.15,'d','e'
4.11,'d','e'
3.24,'d','e'
3.34,'d','e'
3.63,'d','e'
3.42,'d','e'
3.62,'d','e'
3.33,'d','e'
2.61,'d','e'
3.48,'d','e'
3.27,'d','e'
3.97,'d','e'
3.45,'d','e'
4.17,'d','e'
3.57,'d','e'
3.52,'d','e'
3.91,'d','e'
3.68,'d','e'
3.98,'d','e'
2.92,'d','e'
3.43,'d','e'
3.66,'d','e'
2.82,'d','e'
3.47,'d','e'
3.9,'d','e'
3.5,'d','e'
3.85,'d','e'
3.8,'d','e'
3.89,'d','e'
5.21,'d','e'
3.39,'d','e'
2.79,'d','e'
3.67,'d','e'
8.97,'d','p'
10.68,'d','p'
6.95,'d','p'
8.12,'d','p'
8.51,'d','p'
9.83,'d','p'
7.31,'d','p'
7.23,'d','p'
8.36,'d','p'
9.39,'d','p'
10.04,'d','p'
9.23,'d','p'
8.91,'d','p'
7.67,'d','p'
9.01,'d','p'
8.62,'d','p'
10.7,'d','p'
7.1,'d','p'
9.27,'d','p'
8.15,'d','p'
8.93,'d','p'
8.84,'d','p'
7.88,'d','p'
8.02,'d','p'
7.51,'d','p'
10.4,'d','p'
9.23,'d','p'
11.03,'d','p'
8.97,'d','p'
9.34,'d','p'
9.2,'d','p'
8.44,'d','p'
6.26,'d','p'
9.64,'d','p'
7.95,'d','p'
9.71,'d','p'
11.27,'d','p'
9.35,'d','p'
9.96,'d','p'
10.25,'d','p'
8.25,'d','p'
9.28,'d','p'
9.52,'d','p'
8.64,'d','p'
8.95,'d','p'
8.07,'d','p'
7.85,'d','p'
7.83,'d','p'
8.96,'d','p'
7.99,'d','p'
9.32,'d','p'
11.25,'d','p'
8.51,'d','p'
9.23,'d','p'
7.5,'d','p'
8.64,'d','p'
10.12,'d','p'
9.68,'d','p'
6.91,'d','p'
9.16,'d','p'
9.29,'d','p'
9.71,'d','p'
8.41,'d','p'
8.38,'d','p'
8.33,'d','p'
8.11,'d','p'
9.38,'d','p'
8.86,'d','p'
7.53,'d','p'
9.13,'d','p'
8.35,'d','p'
9.18,'d','p'
9.05,'d','p'
8.25,'d','p'
8.09,'d','p'
9.67,'d','p'
6.36,'d','p'
9.83,'d','p'
8.4,'d','p'
8.34,'d','p'
9.88,'d','p'
8.16,'d','p'
8.51,'d','p'
8.41,'d','p'
8.18,'d','p'
8.57,'d','p'
9.58,'d','p'
8.82,'d','p'
8.57,'d','p'
9.42,'d','p'
9.89,'d','p'
11.13,'d','p'
8.38,'d','p'
9.11,'d','p'
9.34,'d','p'
8.05,'d','p'
7.84,'d','p'
8.62,'d','p'
8.25,'d','p'
8.84,'d','p'
9.1,'d','p'
7.65,'d','p'
9.37,'d','p'
9.02,'d','p'
9.23,'d','p'
7.83,'d','p'
7.16,'d','p'
7.35,'d','p'
9.33,'d','p'
8.79,'d','p'
8.66,'d','p'
9.02,'d','p'
8.76,'d','p'
9.87,'d','p'
7.27,'d','p'
7.5,'d','p'
11.21,'d','p'
7.77,'d','p'
10.29,'d','p'
8.44,'d','p'
9.17,'d','p'
10.79,'d','p'
10.68,'d','p'
8.82,'d','p'
9.19,'d','p'
8.01,'d','p'
8.33,'d','p'
9.92,'d','p'
9.39,'d','p'
9.22,'d','p'
9.05,'d','p'
6.9,'d','p'
9,'d','p'
8.02,'d','p'
8.01,'d','p'
9.66,'d','p'
8.77,'d','p'
9.59,'d','p'
9.8,'d','p'
10.44,'d','p'
8.25,'d','p'
8.26,'d','p'
9.87,'d','p'
8.91,'d','p'
8.42,'d','p'
8.64,'d','p'
7.42,'d','p'
9.44,'d','p'
8.39,'d','p'
7.55,'d','p'
9.8,'d','p'
9.49,'d','p'
9.97,'d','p'
7.89,'d','p'
9.77,'d','p'
9.15,'d','p'
9.99,'d','p'
9.2,'d','p'
8.57,'d','p'
10.41,'d','p'
9.3,'d','p'
7.99,'d','p'
8.22,'d','p'
11.25,'d','p'
8.67,'d','p'
10.09,'d','p'
8.28,'d','p'
6.01,'d','p'
9.13,'d','p'
8.87,'d','p'
10.7,'d','p'
8.87,'d','p'
9.51,'d','p'
11.35,'d','p'
10.51,'d','p'
9.21,'d','p'
9.83,'d','p'
9.36,'d','p'
8.88,'d','p'
6.89,'d','p'
9.25,'d','p'
8.68,'d','p'
8.36,'d','p'
9.28,'d','p'
9.98,'d','p'
9.13,'d','p'
7.18,'d','p'
9.79,'d','p'
8.21,'d','p'
7.06,'d','p'
7.21,'d','p'
9.18,'d','p'
8.71,'d','p'
8.29,'d','p'
10.42,'d','p'
8.35,'d','p'
8.26,'d','p'
7.55,'d','p'
9.84,'d','p'
9.92,'d','p'
7.52,'d','p'
9.25,'d','p'
8.86,'d','p'
10.33,'d','p'
8.69,'d','p'
8.38,'d','p'
9.96,'d','p'
9.46,'d','p'
8.76,'d','p'
9.93,'d','p'
9.51,'d','p'
8.15,'d','p'
9.4,'d','p'
9.12,'d','p'
9.7,'d','p'
7.61,'d','p'
9.4,'d','p'
9.11,'d','p'
9.18,'d','p'
9.61,'d','p'
8.17,'d','p'
8.15,'d','p'
6.98,'d','p'
10.65,'d','p'
9.43,'d','p'
9.25,'d','p'
9.89,'d','p'
8.88,'d','p'
9.32,'d','p'
10.76,'d','p'
9.41,'d','p'
8.91,'d','p'
8.72,'d','p'
9.88,'d','p'
9.27,'d','p'
7.83,'d','p'
10.05,'d','p'
9.49,'d','p'
9.72,'d','p'
8.55,'d','p'
9.78,'d','p'
10.51,'d','p'
8.9,'d','p'
9.5,'d','p'
9.76,'d','p'
7.99,'d','p'
8.2,'d','p'
10.98,'d','p'
7.81,'d','p'
9.13,'d','p'
8.64,'d','p'
8.81,'d','p'
8.51,'d','p'
10.83,'d','p'
8.94,'d','p'
8.48,'d','p'
10.75,'d','p'
9.47,'d','p'
9.02,'d','p'
8.58,'d','p'
10.04,'d','p'
9.66,'d','p'
8.85,'d','p'
8.54,'d','p'
10.77,'d','p'
9.42,'d','p'
10.57,'d','p'
9.03,'d','p'
11.01,'d','p'
8.7,'d','p'
8.28,'d','p'
9.2,'d','p'
8.81,'d','p'
9.1,'d','p'
10.3,'d','p'
9.51,'d','p'
8.13,'d','p'
8.48,'d','p'
10.53,'d','p'
8.29,'d','p'
8.85,'d','p'
9.2,'d','p'
8.34,'d','p'
8.77,'d','p'
7.98,'d','p'
8.71,'d','p'
9.84,'d','p'
8.73,'d','p'
9.11,'d','p'
9.38,'d','p'
8.66,'d','p'
9.88,'d','p'
7.99,'d','p'
11.01,'d','p'
9.48,'d','p'
7.31,'d','p'
9.96,'d','p'
9.1,'d','p'
9.74,'d','p'
8.81,'d','p'
8.4,'d','p'
7.75,'d','p'
8.95,'d','p'
10.57,'d','p'
11.63,'d','p'
9.34,'d','p'
7.18,'d','p'
10.21,'d','p'
7.85,'d','p'
9.07,'d','p'
9,'d','p'
8.74,'d','p'
8.34,'d','p'
9.47,'d','p'
8.33,'d','p'
8.61,'d','p'
7.83,'d','p'
8,'d','p'
7.38,'d','p'
8.01,'d','p'
9.43,'d','p'
9.33,'d','p'
9.78,'d','p'
8.07,'d','p'
9.63,'d','p'
10.35,'d','p'
9.62,'d','p'
9.3,'d','p'
7.33,'d','p'
8.83,'d','p'
8.54,'d','p'
10.52,'d','p'
7.49,'d','p'
9.48,'d','p'
7.1,'d','p'
8.54,'d','p'
8.86,'d','p'
6.17,'d','p'
8.72,'d','p'
9.27,'d','p'
8.87,'d','p'
8.9,'d','p'
7.31,'d','p'
9.17,'d','p'
11.27,'d','p'
9.73,'d','p'
9.03,'d','p'
9.25,'d','p'
9.73,'d','p'
10.01,'d','p'
9.51,'d','p'
9.01,'d','p'
9.08,'d','p'
10.35,'d','e'
9.48,'d','e'
11.74,'d','e'
9.9,'d','e'
9.58,'d','e'
7.07,'d','e'
11.63,'d','e'
10.38,'d','e'
8.36,'d','e'
9.36,'d','e'
11.37,'d','e'
8.41,'d','e'
10.04,'d','e'
6.55,'d','e'
10.51,'d','e'
8.78,'d','e'
10.26,'d','e'
7.62,'d','e'
12.41,'d','e'
9.46,'d','e'
9.37,'d','e'
8.22,'d','e'
12.61,'d','e'
11.13,'d','e'
8.99,'d','e'
11.44,'d','e'
10.31,'d','e'
10.38,'d','e'
12.22,'d','e'
6.07,'d','e'
9.05,'d','e'
10.59,'d','e'
8.75,'d','e'
6.99,'d','e'
9.92,'d','e'
10.09,'d','e'
9.54,'d','e'
9.29,'d','e'
12.89,'d','e'
10.57,'d','e'
9.3,'d','e'
10.95,'d','e'
11.58,'d','e'
9.2,'d','e'
11.72,'d','e'
8.67,'d','e'
9.68,'d','e'
10.04,'d','e'
6.58,'d','e'
10.68,'d','e'
11.32,'d','e'
8.02,'d','e'
11.4,'d','e'
8.01,'d','e'
11.48,'d','e'
9.84,'d','e'
9.14,'d','e'
12.11,'d','e'
9.66,'d','e'
11.88,'d','e'
10.6,'d','e'
10.26,'d','e'
14.01,'d','e'
8.06,'d','e'
7.37,'d','e'
9.82,'d','e'
9.82,'d','e'
7.59,'d','e'
6.22,'d','e'
9.11,'d','e'
8.91,'d','e'
10.13,'d','e'
12.2,'d','e'
6.96,'d','e'
8.8,'d','e'
10.22,'d','e'
9.86,'d','e'
10.78,'d','e'
8.65,'d','e'
8.93,'d','e'
7.51,'d','e'
10.03,'d','e'
11.58,'d','e'
12.25,'d','e'
10.04,'d','e'
8.35,'d','e'
10.17,'d','e'
10.81,'d','e'
12.59,'d','e'
10.15,'d','e'
10.86,'d','e'
9.9,'d','e'
8.06,'d','e'
9.01,'d','e'
11.24,'d','e'
11.26,'d','e'
10.61,'d','e'
9.96,'d','e'
8.72,'d','e'
9.47,'d','e'
7.16,'d','e'
9.65,'d','e'
10.47,'d','e'
12.3,'d','e'
12.16,'d','e'
10.81,'d','e'
12.49,'d','e'
9.44,'d','e'
12.04,'d','e'
10.1,'d','e'
10.9,'d','e'
8.39,'d','e'
11.45,'d','e'
11.64,'d','e'
11.86,'d','e'
7.69,'d','e'
10.31,'d','e'
10.72,'d','e'
9.87,'d','e'
8.47,'d','e'
10.83,'d','e'
8.87,'d','e'
9.65,'d','e'
7.05,'d','e'
8.26,'d','e'
12.65,'d','e'
9.39,'d','e'
8.67,'d','e'
9.87,'d','e'
10.12,'d','e'
8.65,'d','e'
7.31,'d','e'
10.9,'d','e'
9.48,'d','e'
8.81,'d','e'
10.98,'d','e'
5.1,'d','e'
10.51,'d','e'
8.57,'d','e'
10.93,'d','e'
10.37,'d','e'
9.72,'d','e'
11.03,'d','e'
9.43,'d','e'
8.79,'d','e'
8.23,'d','e'
9.03,'d','e'
10.37,'d','e'
10.53,'d','e'
9.26,'d','e'
10.78,'d','e'
13.33,'d','e'
10.77,'d','e'
10.93,'d','e'
12.69,'d','e'
5.68,'d','e'
9.75,'d','e'
9.37,'d','e'
11,'d','e'
13.43,'d','e'
12.25,'d','e'
11.05,'d','e'
8.88,'d','e'
8.46,'d','e'
11.68,'d','e'
10.19,'d','e'
10.86,'d','e'
13.79,'d','e'
10.98,'d','e'
9.27,'d','e'
11.48,'d','e'
8.12,'d','e'
11.23,'d','e'
9.24,'d','e'
9.15,'d','e'
8.66,'d','e'
10.08,'d','e'
10.23,'d','e'
7.55,'d','e'
7.17,'d','e'
8.08,'d','e'
7.43,'d','e'
10.3,'d','e'
8.66,'d','e'
11.97,'d','e'
11.09,'d','e'
8.09,'d','e'
12.64,'d','e'
10.96,'d','e'
8.03,'d','e'
8.04,'d','e'
9.55,'d','e'
14.07,'d','e'
8.97,'d','e'
9.36,'d','e'
10.3,'d','e'
11.96,'d','e'
8.53,'d','e'
9.68,'d','e'
11.26,'d','e'
8.53,'d','e'
10.09,'d','e'
11.57,'d','e'
12.71,'d','e'
8.49,'d','e'
9.07,'d','e'
8.97,'d','e'
12.34,'d','e'
8.3,'d','e'
11.25,'d','e'
10.19,'d','e'
9,'d','e'
11.66,'d','e'
7.56,'d','e'
11.75,'d','e'
8.84,'d','e'
11.06,'d','e'
9.11,'d','e'
8.44,'d','e'
7.74,'d','e'
11.82,'d','e'
10.13,'d','e'
12.34,'d','e'
4.88,'d','e'
10.58,'d','e'
10.15,'d','e'
9.86,'d','e'
9.25,'d','e'
9.91,'d','e'
8,'d','e'
11.45,'d','e'
13.19,'d','e'
11.35,'d','e'
11.86,'d','e'
8.67,'d','e'
12.57,'d','e'
8.44,'d','e'
10.08,'d','e'
8.28,'d','e'
9.53,'d','e'
10.75,'d','e'
12.32,'d','e'
12.42,'d','e'
10.33,'d','e'
9.03,'d','e'
12.24,'d','e'
12.22,'d','e'
9.76,'d','e'
10.6,'d','e'
9.99,'d','e'
10.03,'d','e'
5.44,'d','e'
10.38,'d','e'
12.34,'d','e'
7.47,'d','e'
9.42,'d','e'
8.24,'d','e'
11.92,'d','e'
12,'d','e'
9.82,'d','e'
8.34,'d','e'
10.64,'d','e'
10.87,'d','e'
9.61,'d','e'
9.34,'d','e'
9.4,'d','e'
8.2,'d','e'
10.64,'d','e'
10.27,'d','e'
8.89,'d','e'
9.18,'d','e'
10.82,'d','e'
11.41,'d','e'
10.29,'d','e'
11.49,'d','e'
8.27,'d','e'
13.03,'d','e'
12.74,'d','e'
10.13,'d','e'
11.46,'d','e'
9.29,'d','e'
9.89,'d','e'
11.16,'d','e'
10.2,'d','e'
11.98,'d','e'
10.98,'d','e'
11.26,'d','e'
10.6,'d','e'
7.62,'d','e'
11.77,'d','e'
10.2,'d','e'
12.41,'d','e'
11.88,'d','e'
9.35,'d','e'
12.37,'d','e'
8.04,'d','e'
11.35,'d','e'
13.15,'d','e'
11.11,'d','e'
8.5,'d','e'
10.84,'d','e'
10.73,'d','e'
12.98,'d','e'
8.46,'d','e'
13.19,'d','e'
7.03,'d','e'
6.97,'d','e'
11.32,'d','e'
10.23,'d','e'
9.19,'d','e'
11.64,'d','e'
8.99,'d','e'
12.2,'d','e'
6.4,'d','e'
9.59,'d','e'
10.93,'d','e'
9.53,'d','e'
11.21,'d','e'
10.91,'d','e'
7.52,'d','e'
11.77,'d','e'
10.49,'d','e'
11.91,'d','e'
10.84,'d','e'
9.88,'d','e'
13.15,'d','e'
4.54,'d','e'
10.77,'d','e'
11.53,'d','e'
8,'d','e'
8.83,'d','e'
11.07,'d','e'
11.11,'d','e'
11.94,'d','e'
8.15,'d','e'
8.33,'d','e'
10.94,'d','e'
8.21,'d','e'
8.6,'d','e'
11.78,'d','e'
8.17,'d','e'
9.49,'d','e'
11.95,'d','e'
10.19,'d','e'
10.98,'d','e'
10.15,'d','e'
9.44,'d','e'
10.92,'d','e'
11.38,'d','e'
10.93,'d','e'
8.03,'d','e'
10.46,'d','e'
10.16,'d','e'
8.04,'d','p'
10.24,'d','p'
9.88,'d','p'
7.68,'d','p'
7.89,'d','p'
7.53,'d','p'
7.83,'d','p'
8.58,'d','p'
6.92,'d','p'
10.37,'d','p'
7.8,'d','p'
8.14,'d','p'
10.05,'d','p'
9.09,'d','p'
8.72,'d','p'
9.72,'d','p'
10.07,'d','p'
7.56,'d','p'
9.22,'d','p'
9.44,'d','p'
8.84,'d','p'
9.08,'d','p'
8.02,'d','p'
8.49,'d','p'
6.1,'d','p'
9.33,'d','p'
6.33,'d','p'
8.88,'d','p'
11.19,'d','p'
10.99,'d','p'
8.98,'d','p'
7.64,'d','p'
10.5,'d','p'
7.93,'d','p'
7.63,'d','p'
8.99,'d','p'
9.49,'d','p'
9.91,'d','p'
6.89,'d','p'
7.62,'d','p'
9.32,'d','p'
7.09,'d','p'
8.96,'d','p'
8.7,'d','p'
9.62,'d','p'
8.47,'d','p'
6.77,'d','p'
8.69,'d','p'
7.76,'d','p'
7.54,'d','p'
9.77,'d','p'
7.58,'d','p'
8.35,'d','p'
7.96,'d','p'
9.06,'d','p'
9.05,'d','p'
7.53,'d','p'
7.56,'d','p'
7.21,'d','p'
7.64,'d','p'
9.87,'d','p'
8.01,'d','p'
7.91,'d','p'
7.12,'d','p'
9.57,'d','p'
8.49,'d','p'
8.16,'d','p'
9.16,'d','p'
9.95,'d','p'
9.28,'d','p'
8.69,'d','p'
9.53,'d','p'
7.96,'d','p'
7.47,'d','p'
7.97,'d','p'
8.96,'d','p'
11.15,'d','p'
8.08,'d','p'
8.16,'d','p'
8.99,'d','p'
9.04,'d','p'
8.74,'d','p'
9.85,'d','p'
8.02,'d','p'
6.9,'d','p'
6.29,'d','p'
10.37,'d','p'
7.41,'d','p'
12.57,'d','p'
8.09,'d','p'
9.2,'d','p'
9.03,'d','p'
6.58,'d','p'
9.89,'d','p'
5.81,'d','p'
8.59,'d','p'
8.75,'d','p'
9.79,'d','p'
9.31,'d','p'
10.7,'d','p'
8.69,'d','p'
9.28,'d','p'
5.99,'d','p'
8.66,'d','p'
8.24,'d','p'
7.22,'d','p'
9.24,'d','p'
7.73,'d','p'
7.92,'d','p'
8.85,'d','p'
7.62,'d','p'
10.23,'d','p'
9.4,'d','p'
9.59,'d','p'
7.68,'d','p'
9.38,'d','p'
7.97,'d','p'
9.47,'d','p'
7.35,'d','p'
6.63,'d','p'
7.65,'d','p'
11.5,'d','p'
6.14,'d','p'
8.1,'d','p'
7.78,'d','p'
6.91,'d','p'
10.02,'d','p'
9.62,'d','p'
8.13,'d','p'
8.86,'d','p'
6.83,'d','p'
9.95,'d','p'
9.22,'d','p'
10.38,'d','p'
7.09,'d','p'
10.13,'d','p'
11.76,'d','p'
11.44,'d','p'
7.5,'d','p'
6.75,'d','p'
9.09,'d','p'
8.62,'d','p'
8.86,'d','p'
8.95,'d','p'
8.79,'d','p'
10.82,'d','p'
9.54,'d','p'
8.39,'d','p'
7.23,'d','p'
11.24,'d','p'
8.81,'d','p'
7.42,'d','p'
7.64,'d','p'
9.13,'d','p'
7.96,'d','p'
8.62,'d','p'
8.76,'d','p'
7.85,'d','p'
9.71,'d','p'
7.57,'d','p'
10.49,'d','p'
9.3,'d','p'
8.75,'d','p'
7.87,'d','p'
6.93,'d','p'
9.44,'d','p'
6.41,'d','p'
9.85,'d','p'
11.83,'d','p'
8.77,'d','p'
7.36,'d','p'
8.06,'d','p'
11.59,'d','p'
8.25,'d','p'
8.38,'d','p'
10.03,'d','p'
8.44,'d','p'
8.8,'d','p'
7.46,'d','p'
10.2,'d','p'
10.18,'d','p'
7.42,'d','p'
8.18,'d','p'
7.39,'d','p'
7.74,'d','p'
8.61,'d','p'
7.48,'d','p'
9.63,'d','p'
8.33,'d','p'
10.53,'d','p'
8.38,'d','p'
6.57,'d','p'
9.24,'d','p'
7.85,'d','p'
8.78,'d','p'
8.79,'d','p'
8.58,'d','p'
9.02,'d','p'
9.25,'d','p'
8.58,'d','p'
7.96,'d','p'
7.01,'d','p'
8.28,'d','p'
9.25,'d','p'
10.67,'d','p'
8.05,'d','p'
8.52,'d','p'
8.26,'d','p'
7.79,'d','p'
7.49,'d','p'
8.16,'d','p'
6.2,'d','p'
7.76,'d','p'
8.31,'d','p'
6.49,'d','p'
11.18,'d','p'
7.89,'d','p'
8.9,'d','p'
7.63,'d','p'
10.24,'d','p'
10.3,'d','p'
11.77,'d','p'
8.38,'d','p'
9.77,'d','p'
8.77,'d','p'
9.92,'d','p'
9.46,'d','p'
6.03,'d','p'
8.72,'d','p'
7.51,'d','p'
5.97,'d','p'
7.26,'d','p'
7.77,'d','p'
9.09,'d','p'
10.37,'d','p'
8.65,'d','p'
10.18,'d','p'
8.73,'d','p'
8.43,'d','p'
8.82,'d','p'
8.14,'d','p'
9.16,'d','p'
8.27,'d','p'
9.03,'d','p'
6.8,'d','p'
7.93,'d','p'
9.77,'d','p'
9.76,'d','p'
8.55,'d','p'
10.41,'d','p'
6.63,'d','p'
7.68,'d','p'
8.98,'d','p'
8.62,'d','p'
9.16,'d','p'
10.37,'d','p'
8.72,'d','p'
8.92,'d','p'
8.65,'d','p'
7.66,'d','p'
7.9,'d','p'
9.41,'d','p'
8.04,'d','p'
8.98,'d','p'
7.15,'d','p'
8.22,'d','p'
8.21,'d','p'
6.67,'d','p'
9.16,'d','p'
7.16,'d','p'
6.45,'d','p'
8.68,'d','p'
6.68,'d','p'
9.34,'d','p'
6.61,'d','p'
8.85,'d','p'
10.93,'d','p'
8.67,'d','p'
7.58,'d','p'
8.9,'d','p'
8.78,'d','p'
6.71,'d','p'
7.25,'d','p'
8.3,'d','p'
7.2,'d','p'
10.19,'d','p'
10.04,'d','p'
9.23,'d','p'
9.58,'d','p'
8.71,'d','p'
9.1,'d','p'
7.98,'d','p'
7.86,'d','p'
7.33,'d','p'
7.75,'d','p'
8.29,'d','p'
9.79,'d','p'
9,'d','p'
6.6,'d','p'
8.73,'d','p'
7.51,'d','p'
8.95,'d','p'
7.72,'d','p'
7.17,'d','p'
10.7,'d','p'
10.13,'d','p'
6.97,'d','p'
8.38,'d','p'
9.65,'d','p'
8.72,'d','p'
6.87,'d','p'
8.74,'d','p'
9.1,'d','p'
8.09,'d','p'
8.96,'d','p'
7.1,'d','p'
8.12,'d','p'
7.19,'d','p'
9.54,'d','p'
9.18,'d','p'
7.75,'d','p'
7.66,'d','p'
8.49,'d','p'
6.84,'d','p'
10.01,'d','p'
10.84,'d','p'
9.62,'d','p'
9.34,'d','p'
6.59,'d','p'
7.42,'d','p'
10.38,'d','p'
7.63,'d','p'
10.35,'d','p'
7.66,'d','p'
10.15,'d','p'
7.57,'d','p'
6.49,'d','p'
7.9,'d','p'
10.99,'d','p'
8.28,'d','p'
9.66,'d','p'
6.69,'d','p'
7.09,'d','p'
9.61,'d','p'
8.81,'d','p'
9.57,'d','p'
8.48,'d','p'
9.49,'d','p'
7.88,'d','p'
9.81,'d','p'
9.86,'d','p'
6.68,'d','p'
10.37,'d','p'
7.54,'d','e'
9.47,'d','e'
9.94,'d','e'
6.61,'d','e'
9.58,'d','e'
7.52,'d','e'
10.71,'d','e'
8.56,'d','e'
8.51,'d','e'
6.9,'d','e'
10.53,'d','e'
8.55,'d','e'
8.92,'d','e'
9.21,'d','e'
8.55,'d','e'
9.96,'d','e'
8.56,'d','e'
10.34,'d','e'
10.08,'d','e'
8.73,'d','e'
7.64,'d','e'
8.79,'d','e'
9.08,'d','e'
8.25,'d','e'
9.61,'d','e'
9.98,'d','e'
8.01,'d','e'
9.12,'d','e'
9.46,'d','e'
8.91,'d','e'
9.36,'d','e'
8.03,'d','e'
9.34,'d','e'
9.63,'d','e'
9.87,'d','e'
7.57,'d','e'
11.11,'d','e'
9.38,'d','e'
7.85,'d','e'
7.93,'d','e'
9.34,'d','e'
7.8,'d','e'
8.93,'d','e'
11.23,'d','e'
7.69,'d','e'
8.04,'d','e'
10.87,'d','e'
9.2,'d','e'
7.95,'d','e'
9.29,'d','e'
10.31,'d','e'
9.74,'d','e'
6.69,'d','e'
10.36,'d','e'
9.44,'d','e'
8.94,'d','e'
7.48,'d','e'
9.44,'d','e'
9.46,'d','e'
7.59,'d','e'
9.94,'d','e'
8.29,'d','e'
9.34,'d','e'
9.73,'d','e'
9.68,'d','e'
9.63,'d','e'
9.16,'d','e'
9.41,'d','e'
8.89,'d','e'
9.52,'d','e'
9.08,'d','e'
9.18,'d','e'
7.92,'d','e'
7.99,'d','e'
8.49,'d','e'
9.17,'d','e'
7.89,'d','e'
9.87,'d','e'
9.49,'d','e'
8.85,'d','e'
7.07,'d','e'
9.02,'d','e'
9.34,'d','e'
10.03,'d','e'
7.47,'d','e'
9,'d','e'
10.26,'d','e'
10.24,'d','e'
9.29,'d','e'
9.05,'d','e'
9.4,'d','e'
8.8,'d','e'
7.45,'d','e'
8.84,'d','e'
10.05,'d','e'
9.76,'d','e'
9.81,'d','e'
7.09,'d','e'
7.95,'d','e'
9.75,'d','e'
8.21,'d','e'
9.46,'d','e'
8.94,'d','e'
7.04,'d','e'
7.88,'d','e'
9.1,'d','e'
10.85,'d','e'
8.77,'d','e'
8.57,'d','e'
8.53,'d','e'
9.13,'d','e'
8.97,'d','e'
9.73,'d','e'
8.74,'d','e'
8.8,'d','e'
9.95,'d','e'
7.67,'d','e'
9.57,'d','e'
9.98,'d','e'
8.14,'d','e'
8.38,'d','e'
8.55,'d','e'
10.08,'d','e'
7.98,'d','e'
9.09,'d','e'
9.49,'d','e'
9.4,'d','e'
9.29,'d','e'
9.49,'d','e'
10.01,'d','e'
10.07,'d','e'
9.57,'d','e'
9.98,'d','e'
8.34,'d','e'
7.61,'d','e'
8.87,'d','e'
8.18,'d','e'
7.64,'d','e'
12.93,'d','e'
10.29,'d','e'
7.38,'d','e'
9.79,'d','e'
9.57,'d','e'
8.54,'d','e'
9.51,'d','e'
6.35,'d','e'
10.53,'d','e'
9.29,'d','e'
9.84,'d','e'
6.74,'d','e'
9.16,'d','e'
8.24,'d','e'
9.25,'d','e'
8.57,'d','e'
9.11,'d','e'
9.11,'d','e'
8.99,'d','e'
7.31,'d','e'
8.27,'d','e'
9.79,'d','e'
9.02,'d','e'
9.01,'d','e'
11.03,'d','e'
9.37,'d','e'
9.16,'d','e'
8.35,'d','e'
10.29,'d','e'
10.54,'d','e'
9.67,'d','e'
6.45,'d','e'
8.84,'d','e'
9.14,'d','e'
8.82,'d','e'
9.55,'d','e'
9.21,'d','e'
8.85,'d','e'
9.01,'d','e'
8.16,'d','e'
9.32,'d','e'
9.74,'d','e'
9.14,'d','e'
8.88,'d','e'
9.17,'d','e'
8.14,'d','e'
7.71,'d','e'
8.59,'d','e'
8.12,'d','e'
8.16,'d','e'
8.6,'d','e'
9.09,'d','e'
9.81,'d','e'
7.79,'d','e'
9.05,'d','e'
7.91,'d','e'
8.17,'d','e'
8.46,'d','e'
9.29,'d','e'
8.25,'d','e'
7.78,'d','e'
8.19,'d','e'
8.23,'d','e'
8.14,'d','e'
8.62,'d','e'
8.3,'d','e'
8.43,'d','e'
6.99,'d','e'
8.35,'d','e'
7.72,'d','e'
11.35,'d','e'
9.49,'d','e'
8.04,'d','e'
11,'d','e'
9.51,'d','e'
7.96,'d','e'
9.44,'d','e'
8.72,'d','e'
9.21,'d','e'
9.09,'d','e'
10.03,'d','e'
10.5,'d','e'
9.43,'d','e'
9.53,'d','e'
9.36,'d','e'
9.44,'d','e'
8.4,'d','e'
8.58,'d','e'
9.19,'d','e'
7.04,'d','e'
7.25,'d','e'
9.34,'d','e'
9.14,'d','e'
9.84,'d','e'
9.5,'d','e'
7.38,'d','e'
7.92,'d','e'
9.49,'d','e'
9.17,'d','e'
8.6,'d','e'
10.33,'d','e'
6.96,'d','e'
8.79,'d','e'
8.74,'d','e'
8.5,'d','e'
11.16,'d','e'
7.96,'d','e'
10.67,'d','e'
8.44,'d','e'
9.79,'d','e'
8.13,'d','e'
8.81,'d','e'
8.47,'d','e'
7.18,'d','e'
8.09,'d','e'
9.85,'d','e'
9.77,'d','e'
9.66,'d','e'
8.12,'d','e'
9.05,'d','e'
8.97,'d','e'
11.14,'d','e'
7.99,'d','e'
8.11,'d','e'
8.98,'d','e'
10.72,'d','e'
9,'d','e'
9.22,'d','e'
9.46,'d','e'
10.85,'d','e'
9.52,'d','e'
8.7,'d','e'
9.82,'d','e'
9.28,'d','e'
9.84,'d','e'
8.66,'d','e'
8.08,'d','e'
8.17,'d','e'
6.84,'d','e'
9.67,'d','e'
11.47,'d','e'
7.54,'d','e'
9.56,'d','e'
9.29,'d','e'
8.67,'d','e'
8.66,'d','e'
9.16,'d','e'
9.46,'d','e'
9.2,'d','e'
8.16,'d','e'
10.88,'d','e'
8.03,'d','e'
9.6,'d','e'
7.42,'d','e'
8.7,'d','e'
9.1,'d','e'
7.43,'d','e'
10.26,'d','e'
9.77,'d','e'
9.27,'d','e'
9.2,'d','e'
9.48,'d','e'
8.76,'d','e'
9.18,'d','e'
9.02,'d','e'
8.74,'d','e'
10.02,'d','e'
6.07,'d','e'
7.45,'d','e'
9.87,'d','e'
10.74,'d','e'
8.37,'d','e'
8.37,'d','e'
8.6,'d','e'
9.92,'d','e'
8.67,'d','e'
9.91,'d','e'
9.77,'d','e'
7.96,'d','e'
9.51,'d','e'
10.83,'d','e'
10.19,'d','e'
8.12,'d','e'
10.27,'d','e'
8.49,'d','e'
9.66,'d','e'
7.62,'d','e'
9.71,'d','e'
10.12,'d','e'
10,'d','e'
9.43,'d','e'
11.24,'d','e'
9.21,'d','e'
7.86,'d','e'
8.99,'d','e'
8.36,'d','e'
8.01,'d','e'
8.35,'d','e'
9.57,'d','e'
8.96,'d','e'
9.07,'d','e'
10.01,'d','e'
8.63,'d','e'
9.35,'d','e'
8.63,'d','e'
9.12,'d','e'
9.85,'d','e'
8.44,'d','e'
11.72,'d','e'
8.37,'d','e'
7.55,'d','e'
8.1,'d','e'
9.54,'d','e'
8.92,'d','e'
7.49,'d','e'
6.35,'d','e'
5.89,'d','e'
6.19,'d','e'
6.49,'d','e'
7.45,'d','e'
5.6,'d','e'
6.42,'d','e'
5.96,'d','e'
7.58,'d','e'
6.84,'d','e'
5.49,'d','e'
4.91,'d','e'
7.66,'d','e'
4.68,'d','e'
5.2,'d','e'
7.08,'d','e'
5.55,'d','e'
6.02,'d','e'
6.69,'d','e'
5.35,'d','e'
5.76,'d','e'
6.75,'d','e'
7.55,'d','e'
5.88,'d','e'
5.89,'d','e'
6.11,'d','e'
7.06,'d','e'
5.63,'d','e'
6.84,'d','e'
6.45,'d','e'
8.4,'d','e'
6.91,'d','e'
5.48,'d','e'
6.95,'d','e'
5.62,'d','e'
6.19,'d','e'
5.75,'d','e'
5.22,'d','e'
7.17,'d','e'
6.6,'d','e'
5.06,'d','e'
5.57,'d','e'
5.85,'d','e'
5.6,'d','e'
5.8,'d','e'
6.3,'d','e'
6.64,'d','e'
6.06,'d','e'
5.82,'d','e'
5.92,'d','e'
6.84,'d','e'
6.53,'d','e'
6.9,'d','e'
5.53,'d','e'
7.36,'d','e'
6.24,'d','e'
4.84,'d','e'
4.72,'d','e'
6.99,'d','e'
6.04,'d','e'
6.81,'d','e'
6.67,'d','e'
6.75,'d','e'
6.1,'d','e'
6.66,'d','e'
5.87,'d','e'
5.93,'d','e'
7.39,'d','e'
6.33,'d','e'
7.22,'d','e'
6.41,'d','e'
6.89,'d','e'
6.78,'d','e'
7.29,'d','e'
6.9,'d','e'
7.22,'d','e'
7.06,'d','e'
5.52,'d','e'
6.96,'d','e'
6.54,'d','e'
5.33,'d','e'
6.93,'d','e'
5.82,'d','e'
6.43,'d','e'
6.29,'d','e'
6.39,'d','e'
6.66,'d','e'
7.74,'d','e'
6.26,'d','e'
5.6,'d','e'
7.35,'d','e'
7.58,'d','e'
6.38,'d','e'
6.35,'d','e'
7.09,'d','e'
6.62,'d','e'
6.08,'d','e'
6.42,'d','e'
6.9,'d','e'
7.59,'d','e'
6.49,'d','e'
7.21,'d','e'
6.08,'d','e'
7.27,'d','e'
6.7,'d','e'
6.9,'d','e'
6.58,'d','e'
4.79,'d','e'
5.2,'d','e'
6.89,'d','e'
5.82,'d','e'
6.74,'d','e'
5,'d','e'
5.55,'d','e'
6.5,'d','e'
6.85,'d','e'
6.33,'d','e'
5.61,'d','e'
6.59,'d','e'
7.12,'d','e'
5.3,'d','e'
6.35,'d','e'
5.7,'d','e'
7.01,'d','e'
7.49,'d','e'
6.44,'d','e'
6.57,'d','e'
6.54,'d','e'
7.21,'d','e'
8.11,'d','e'
5.72,'d','e'
5.62,'d','e'
6.72,'d','e'
7.33,'d','e'
5.81,'d','e'
7.13,'d','e'
5.94,'d','e'
6.84,'d','e'
5.81,'d','e'
5.62,'d','e'
6.95,'d','e'
7.49,'d','e'
5.82,'d','e'
7.46,'d','e'
7.05,'d','e'
6.15,'d','e'
6.7,'d','e'
5.78,'d','e'
6.74,'d','e'
6.94,'d','e'
5.09,'d','e'
7.14,'d','e'
5.56,'d','e'
6.25,'d','e'
6.88,'d','e'
5.6,'d','e'
6.28,'d','e'
5.19,'d','e'
6.19,'d','e'
5.58,'d','e'
5.06,'d','e'
7.1,'d','e'
5.77,'d','e'
5.63,'d','e'
5.24,'d','e'
7.26,'d','e'
7.13,'d','e'
6.7,'d','e'
7.37,'d','e'
4.98,'d','e'
6.55,'d','e'
7.37,'d','e'
7.4,'d','e'
5.42,'d','e'
5.19,'d','e'
6.71,'d','e'
5.93,'d','e'
8.04,'d','e'
6.05,'d','e'
6.52,'d','e'
5.75,'d','e'
5.59,'d','e'
5.46,'d','e'
8.01,'d','e'
6.22,'d','e'
6.7,'d','e'
8.33,'d','e'
7.32,'d','e'
6.23,'d','e'
7.21,'d','e'
8.13,'d','e'
6.58,'d','e'
7.48,'d','e'
8.05,'d','e'
6.11,'d','e'
5.72,'d','e'
5.57,'d','e'
6.93,'d','e'
5.78,'d','e'
6.37,'d','e'
7.26,'d','e'
6.59,'d','e'
5.6,'d','e'
7.65,'d','e'
7.31,'d','e'
7.37,'d','e'
6.53,'d','e'
6.51,'d','e'
7.53,'d','e'
5.74,'d','e'
5.42,'d','e'
6.8,'d','e'
7,'d','e'
6.81,'d','e'
7.2,'d','e'
7.15,'d','e'
5.68,'d','e'
6.88,'d','e'
6.53,'d','e'
6.63,'d','e'
6.39,'d','e'
6.26,'d','e'
8.07,'d','e'
7.28,'d','e'
6.21,'d','e'
7.7,'d','e'
6.69,'d','e'
6.98,'d','e'
5.72,'d','e'
6.63,'d','e'
7.35,'d','e'
7.02,'d','e'
5.78,'d','e'
7.44,'d','e'
6.18,'d','e'
5.99,'d','e'
7.07,'d','e'
5.47,'d','e'
5.97,'d','e'
5.91,'d','e'
6.85,'d','e'
5.38,'d','e'
6.89,'d','e'
6.05,'d','e'
5.88,'d','e'
5.65,'d','e'
7.35,'d','e'
6.96,'d','e'
6.57,'d','e'
6.69,'d','e'
6.33,'d','e'
6.25,'d','e'
4.89,'d','e'
7.84,'d','e'
5.64,'d','e'
6.09,'d','e'
6.95,'d','e'
5.84,'d','e'
7.15,'d','e'
5.07,'d','e'
5.71,'d','e'
6.29,'d','e'
8.2,'d','e'
5.56,'d','e'
5.39,'d','e'
6.98,'d','e'
7.36,'d','e'
7.44,'d','e'
7.47,'d','e'
6.61,'d','e'
7.42,'d','e'
6.39,'d','e'
6.7,'d','e'
7.14,'d','e'
6.46,'d','e'
5.23,'d','e'
5.63,'d','e'
7.6,'d','e'
6.73,'d','e'
6.98,'d','e'
4.73,'d','e'
6.08,'d','e'
7.5,'d','e'
5.44,'d','e'
8.32,'d','e'
5.55,'d','e'
7.52,'d','e'
6.07,'d','e'
6.13,'d','e'
6.82,'d','e'
7.71,'d','e'
5.42,'d','e'
5.41,'d','e'
6.39,'d','e'
7.14,'d','e'
6.87,'d','e'
7.44,'d','e'
6.57,'d','e'
6.71,'d','e'
6.22,'d','e'
6.49,'d','e'
7.74,'d','e'
6.15,'d','e'
7.31,'d','e'
6.23,'d','e'
7.1,'d','e'
6.92,'d','e'
7.3,'d','e'
6.13,'d','e'
5.35,'d','e'
6.13,'d','e'
6.02,'d','e'
6.89,'d','e'
7.2,'d','e'
8.52,'d','e'
6,'d','e'
6.1,'d','e'
6.47,'d','e'
6.46,'d','e'
7.49,'d','e'
7.5,'d','e'
6.38,'d','e'
7.49,'d','e'
7,'d','e'
7.27,'d','e'
5.66,'d','e'
7.12,'d','e'
6.1,'d','e'
7.57,'d','e'
7.29,'d','e'
5.6,'d','e'
6.9,'d','e'
7.61,'d','e'
5.34,'d','e'
4.91,'d','e'
6.67,'d','e'
6.32,'d','e'
6.31,'d','e'
4.49,'d','e'
7.26,'d','e'
5.42,'d','e'
6.58,'d','e'
5.14,'d','e'
5.27,'d','e'
7.19,'d','e'
6.52,'d','e'
7.77,'d','e'
6.3,'d','e'
6.95,'d','e'
7.41,'d','e'
6.28,'d','e'
7.06,'d','e'
5.58,'d','e'
3.24,'g','p'
3.25,'g','p'
4.42,'g','p'
3.28,'g','p'
3.76,'g','p'
2.87,'g','p'
3.12,'g','p'
3.94,'g','p'
3.21,'g','p'
4.92,'g','p'
3.07,'g','p'
3.93,'g','p'
4.28,'g','p'
3.87,'g','p'
3.66,'g','p'
3.43,'g','p'
3.49,'g','p'
2.84,'g','p'
3.74,'g','p'
3.57,'g','p'
3.57,'g','p'
3.75,'g','p'
3.52,'g','p'
3.53,'g','p'
3.53,'g','p'
3.25,'g','p'
2.93,'g','p'
2.22,'g','p'
1.92,'g','p'
3.74,'g','p'
2.93,'g','p'
2.62,'g','p'
4.03,'g','p'
2.51,'g','p'
2.48,'g','p'
3.49,'g','p'
3.58,'g','p'
4.73,'g','p'
4.13,'g','p'
3.89,'g','p'
3.79,'g','p'
3.84,'g','p'
4.13,'g','p'
2.88,'g','p'
2.8,'g','p'
2.71,'g','p'
3.8,'g','p'
4.01,'g','p'
3.83,'g','p'
3.4,'g','p'
3.14,'g','p'
3.95,'g','p'
3.76,'g','p'
3.55,'g','p'
2.92,'g','p'
3.87,'g','p'
3.78,'g','p'
3.6,'g','p'
2.61,'g','p'
3.64,'g','p'
3.93,'g','p'
3.33,'g','p'
3.88,'g','p'
3.93,'g','p'
3.17,'g','p'
2.53,'g','p'
3.15,'g','p'
3.56,'g','p'
3.61,'g','p'
3.02,'g','p'
4.06,'g','p'
4.23,'g','p'
3.6,'g','p'
3.37,'g','p'
4.03,'g','p'
3.95,'g','p'
3.34,'g','p'
4.04,'g','p'
3.24,'g','p'
3.59,'g','p'
3.03,'g','p'
3.28,'g','p'
3.46,'g','p'
3.7,'g','p'
3.65,'g','p'
3.47,'g','p'
3.82,'g','p'
4.11,'g','p'
3.9,'g','p'
3.25,'g','p'
3.66,'g','p'
3.86,'g','p'
2.96,'g','p'
2.79,'g','p'
3.76,'g','p'
3.88,'g','p'
3.49,'g','p'
2.92,'g','p'
3.71,'g','p'
4.42,'g','p'
3.15,'g','p'
3.9,'g','p'
3.72,'g','p'
2.92,'g','p'
3.51,'g','p'
2.82,'g','p'
3.72,'g','p'
2.9,'g','p'
3.03,'g','p'
3.1,'g','p'
3.92,'g','p'
3.87,'g','p'
3.95,'g','p'
3.7,'g','p'
3.08,'g','p'
4.12,'g','p'
4.64,'g','p'
2.85,'g','p'
2.79,'g','p'
3.16,'g','p'
4.25,'g','p'
4.12,'g','p'
3.25,'g','p'
3.92,'g','p'
3.89,'g','p'
4.08,'g','p'
3.41,'g','p'
4.01,'g','p'
3.2,'g','p'
2.65,'g','p'
3.15,'g','p'
4.24,'g','p'
3.06,'g','p'
4.84,'g','p'
3.88,'g','p'
3.78,'g','p'
3.91,'g','p'
3.53,'g','p'
3.45,'g','p'
3.32,'g','p'
3.58,'g','p'
3.17,'g','p'
3.68,'g','p'
4.02,'g','p'
3.04,'g','p'
4.22,'g','p'
2.78,'g','p'
3.25,'g','p'
3.65,'g','p'
3.57,'g','p'
3.1,'g','p'
3.52,'g','p'
3.29,'g','p'
3.73,'g','p'
3.21,'g','p'
3.76,'g','p'
3.06,'g','p'
3.79,'g','p'
3.04,'g','p'
4.56,'g','p'
3.62,'g','p'
3.44,'g','p'
3.65,'g','p'
3.38,'g','p'
3,'g','p'
3.33,'g','p'
3.33,'g','p'
4.16,'g','p'
4.38,'g','p'
4.05,'g','p'
3.87,'g','p'
3.12,'g','p'
2.79,'g','p'
3.6,'g','p'
3.93,'g','p'
2.8,'g','p'
3.37,'g','p'
4.14,'g','p'
4.06,'g','p'
2.71,'g','p'
3.14,'g','p'
2.82,'g','p'
3.09,'g','p'
3.58,'g','p'
2.99,'g','p'
3.67,'g','p'
3.17,'g','p'
3.78,'g','p'
2.98,'g','p'
2.87,'g','p'
3.49,'g','p'
3.31,'g','p'
4.49,'g','p'
3.22,'g','p'
3.78,'g','p'
3.64,'g','p'
3.35,'g','p'
2.97,'g','p'
2.69,'g','p'
3.45,'g','p'
4,'g','p'
2.68,'g','p'
3.02,'g','p'
3.92,'g','p'
4.23,'g','p'
4.13,'g','p'
2.64,'g','p'
4.08,'g','p'
3.25,'g','p'
4.68,'g','p'
3.07,'g','p'
3.62,'g','p'
3.07,'g','p'
3.78,'g','p'
3.17,'g','p'
3.13,'g','p'
3.09,'g','p'
3.33,'g','p'
3.42,'g','p'
3.19,'g','p'
2.97,'g','p'
2.46,'g','p'
4.12,'g','p'
3.71,'g','p'
3.31,'g','p'
3.23,'g','p'
3.01,'g','p'
3.27,'g','p'
3.59,'g','p'
3.13,'g','p'
3.69,'g','p'
4.67,'g','p'
4.05,'g','p'
3.48,'g','p'
3.31,'g','p'
4.16,'g','p'
3.62,'g','p'
3.79,'g','p'
3.71,'g','p'
3.06,'g','p'
4.24,'g','p'
3.14,'g','p'
3.24,'g','p'
2.87,'g','p'
3.12,'g','p'
4.26,'g','p'
3,'g','p'
3.85,'g','p'
3.02,'g','p'
3.17,'g','p'
3.71,'g','p'
4.03,'g','p'
3.95,'g','p'
4.71,'g','p'
3.25,'g','p'
3.52,'g','p'
3.51,'g','p'
3.13,'g','p'
3.97,'g','p'
2.53,'g','p'
3.71,'g','p'
3.21,'g','p'
4.31,'g','p'
4.46,'g','p'
3.9,'g','p'
4.66,'g','p'
3.36,'g','p'
3.75,'g','p'
2.51,'g','p'
3.42,'g','p'
3.27,'g','p'
3.57,'g','p'
3.65,'g','p'
4.12,'g','p'
3.81,'g','p'
3.33,'g','p'
3.53,'g','p'
3.54,'g','p'
3.38,'g','p'
4.19,'g','p'
2.97,'g','p'
4.45,'g','p'
3.78,'g','p'
2.97,'g','p'
3.57,'g','p'
3.98,'g','p'
2.63,'g','p'
3.84,'g','p'
3.29,'g','p'
3.04,'g','p'
3.28,'g','p'
3.42,'g','p'
3.53,'g','p'
3.69,'g','p'
3.28,'g','p'
4.48,'g','p'
2.93,'g','p'
3.09,'g','p'
2.89,'g','p'
3.71,'g','p'
3.85,'g','p'
3.49,'g','p'
3.14,'g','p'
4.72,'g','p'
4.3,'g','p'
3.52,'g','p'
3.8,'g','p'
2.97,'g','p'
2.15,'g','p'
3.17,'g','p'
3.18,'g','p'
3.9,'g','p'
3.09,'g','p'
3.24,'g','p'
3.62,'g','p'
4.1,'g','p'
3.65,'g','p'
3.93,'g','p'
4.18,'g','p'
2.78,'g','p'
3.21,'g','p'
3.14,'g','p'
3.16,'g','p'
4.28,'g','p'
2.12,'g','p'
3.13,'g','p'
3.11,'g','p'
3.18,'g','p'
3.85,'g','p'
3.55,'g','p'
3.29,'g','p'
2.78,'g','p'
4.08,'g','p'
3.48,'g','p'
3.88,'g','p'
3.08,'g','p'
3.77,'g','p'
3.61,'g','p'
2.8,'g','p'
4.17,'g','p'
2.71,'g','p'
3.45,'g','p'
2.89,'g','p'
3.57,'g','p'
4.01,'g','p'
3.51,'g','p'
4.37,'g','p'
2.91,'g','p'
3.04,'g','p'
3.28,'g','p'
3.58,'g','p'
4.06,'g','p'
3.17,'g','p'
3.71,'m','p'
3.26,'m','p'
4.19,'g','p'
3.85,'d','p'
4.34,'m','p'
3.85,'d','p'
4.32,'g','p'
3.78,'d','p'
3.71,'d','p'
3.74,'d','p'
3.46,'g','p'
4.02,'m','p'
4.16,'d','p'
4.11,'g','p'
3.47,'m','p'
4.1,'m','p'
3.86,'g','p'
3.86,'m','p'
3.88,'g','p'
3.72,'m','p'
3.81,'d','p'
3.89,'m','p'
3.76,'m','p'
3.74,'m','p'
3.98,'m','p'
4.24,'g','p'
3.85,'d','p'
4.22,'g','p'
4.08,'d','p'
3.45,'g','p'
3.82,'d','p'
3.35,'d','p'
3.88,'d','p'
3.61,'d','p'
4.43,'m','p'
3.75,'g','p'
3.77,'g','p'
3.78,'g','p'
4,'m','p'
3.76,'g','p'
3.73,'g','p'
3.67,'m','p'
3.88,'d','p'
3.95,'g','p'
3.78,'m','p'
3.99,'g','p'
3.74,'m','p'
4.2,'m','p'
3.46,'m','p'
4.46,'d','p'
4.09,'g','p'
3.99,'g','p'
3.74,'m','p'
4.3,'g','p'
4.37,'d','p'
3.64,'g','p'
3.81,'d','p'
3.68,'d','p'
4.29,'d','p'
3.71,'g','p'
3.96,'d','p'
3.7,'d','p'
4.18,'m','p'
4.3,'m','p'
3.98,'m','p'
3.69,'d','p'
3.7,'g','p'
3.98,'d','p'
3.96,'g','p'
4.22,'d','p'
4.18,'g','p'
4.38,'m','p'
4.28,'g','p'
4.57,'m','p'
3.91,'d','p'
4.28,'m','p'
3.15,'d','p'
4.02,'m','p'
4.14,'m','p'
4.34,'d','p'
4.1,'d','p'
4.47,'m','p'
4.26,'g','p'
3.93,'m','p'
3.85,'g','p'
4.11,'g','p'
3.46,'d','p'
3.81,'g','p'
3.99,'g','p'
4.31,'d','p'
4.18,'m','p'
4.05,'m','p'
4.28,'g','p'
3.87,'m','p'
3.88,'d','p'
4.08,'g','p'
3.82,'d','p'
3.55,'d','p'
3.93,'d','p'
4.22,'m','p'
3.71,'d','p'
4.23,'d','p'
3.28,'m','p'
3.98,'g','p'
3.47,'m','p'
3.75,'g','p'
3.65,'m','p'
4.37,'d','p'
4.22,'d','p'
4.13,'g','p'
4.41,'d','p'
5.1,'m','p'
3.97,'m','p'
4.33,'m','p'
3.93,'m','p'
4.04,'d','p'
3.35,'g','p'
3.93,'m','p'
3.72,'m','p'
3.72,'m','p'
3.81,'d','p'
3.64,'m','p'
4.48,'m','p'
3.99,'d','p'
4.27,'m','p'
4.35,'g','p'
3.97,'g','p'
3.94,'m','p'
3.9,'m','p'
4.13,'d','p'
3.73,'d','p'
3.72,'d','p'
3.88,'d','p'
4.02,'g','p'
4.21,'m','p'
3.9,'d','p'
4.62,'g','p'
4.03,'g','p'
3.79,'m','p'
3.74,'g','p'
4.4,'d','p'
3.87,'g','p'
4.24,'d','p'
3.66,'g','p'
4.1,'g','p'
3.84,'d','p'
3.55,'m','p'
3.83,'g','p'
4.34,'g','p'
4.04,'m','p'
4.16,'m','p'
4.39,'m','p'
4.5,'d','p'
3.65,'g','p'
3.85,'m','p'
4.18,'d','p'
3.62,'m','p'
4.21,'m','p'
4.16,'d','p'
4.45,'m','p'
4.02,'d','p'
4.09,'m','p'
3.76,'g','p'
4.27,'m','p'
4.11,'m','p'
4.33,'d','p'
3.76,'g','p'
4.21,'g','p'
3.65,'g','p'
3.99,'d','p'
3.6,'m','p'
4.74,'d','p'
3.96,'g','p'
3.39,'g','p'
3.39,'d','p'
3.82,'d','p'
4.5,'d','p'
4.16,'g','p'
3.39,'d','p'
3.39,'m','p'
3.38,'g','p'
3.7,'d','p'
3.66,'g','p'
4.03,'g','p'
3.84,'d','p'
3.92,'m','p'
3.83,'d','p'
3.65,'g','p'
4.12,'m','p'
4.16,'d','p'
4.02,'d','p'
3.54,'m','p'
4.23,'g','p'
4.01,'d','p'
3.69,'d','p'
4.25,'m','p'
4.06,'d','p'
4.01,'d','p'
4.18,'d','p'
4.48,'d','p'
4.19,'m','p'
3.98,'d','p'
4.25,'g','p'
4,'g','p'
4.04,'g','p'
3.81,'d','p'
3.47,'m','p'
3.95,'d','p'
3.64,'g','p'
4.39,'m','p'
3.79,'d','p'
3.57,'d','p'
4.17,'d','p'
3.96,'m','p'
4.24,'d','p'
3.82,'d','p'
3.82,'d','p'
3.9,'d','p'
3.68,'g','p'
2.56,'d','p'
4.21,'m','p'
4.3,'d','p'
4.42,'m','p'
3.21,'m','p'
3.94,'m','p'
4.26,'d','p'
4.04,'d','p'
3.33,'m','p'
4.03,'m','p'
3.31,'d','p'
3.39,'d','p'
3.66,'g','p'
3.35,'d','p'
3.94,'d','p'
3.82,'d','p'
3.54,'g','p'
3.98,'g','p'
3.84,'d','p'
4.04,'g','p'
4.03,'d','p'
3.8,'g','p'
4.26,'g','p'
3.75,'m','p'
4.26,'g','p'
3.41,'d','p'
3.81,'g','p'
4.41,'g','p'
3.65,'d','p'
4.28,'m','p'
4.17,'g','p'
3.94,'g','p'
3.83,'g','p'
4.31,'d','p'
4.53,'g','p'
3.58,'m','p'
3.79,'g','p'
3.99,'g','p'
3.14,'m','p'
4.11,'d','p'
4.43,'g','p'
4.21,'m','p'
3.72,'d','p'
3.67,'m','p'
3.99,'d','p'
4.18,'d','p'
3.73,'g','p'
3.6,'g','p'
4.17,'m','p'
4.36,'d','p'
4.32,'m','p'
4.25,'g','p'
3.77,'m','p'
3.42,'g','p'
4.44,'m','p'
4.14,'d','p'
3.95,'d','p'
4.25,'m','p'
4.26,'g','p'
4.41,'g','p'
3.69,'m','p'
4.37,'d','p'
4.41,'g','p'
3.98,'d','p'
3.44,'g','p'
3.46,'d','p'
3.94,'g','p'
4.35,'d','p'
4.24,'m','p'
4.14,'d','p'
4.17,'m','p'
3.97,'g','p'
3.78,'d','p'
4.12,'g','p'
3.39,'m','p'
3.54,'d','p'
3.97,'g','p'
3.55,'d','p'
3.88,'g','p'
4.05,'d','p'
4.48,'d','p'
3.84,'g','p'
3.99,'g','p'
3.53,'g','p'
4.04,'g','p'
3.88,'g','p'
4.47,'d','p'
4.3,'d','p'
4.38,'d','p'
4.45,'g','p'
3.77,'m','p'
4.5,'m','p'
4.44,'m','p'
3.49,'d','p'
4.19,'g','p'
4.33,'d','p'
3.73,'d','p'
3.76,'m','p'
3.91,'m','p'
4.33,'d','p'
4.07,'d','p'
4.73,'g','p'
4.12,'g','p'
3.94,'d','p'
3.91,'d','p'
4.39,'g','p'
3.85,'m','p'
3.79,'m','p'
3.97,'m','p'
3.91,'d','p'
3.86,'d','p'
3.93,'d','p'
3.49,'m','p'
4.14,'g','p'
3.77,'d','p'
4.61,'m','p'
3.61,'d','p'
4.07,'m','p'
3.92,'d','p'
3.46,'g','p'
3.72,'g','p'
3.75,'m','p'
4.49,'d','p'
3.76,'g','p'
4.4,'g','p'
3.5,'m','p'
4.23,'g','p'
3.7,'d','p'
3.94,'d','p'
3.96,'d','p'
3.66,'g','p'
4.19,'d','p'
3.89,'g','p'
3.72,'d','p'
2.74,'g','p'
2.93,'g','p'
2.4,'g','p'
3.09,'g','p'
3.37,'g','p'
2.84,'g','p'
3.04,'g','p'
2.83,'g','p'
2.68,'g','p'
2.95,'g','p'
2.54,'g','p'
2.52,'g','p'
3.06,'g','p'
3.91,'g','p'
2.54,'g','p'
3.18,'g','p'
3.4,'g','p'
3.54,'g','p'
2.67,'g','p'
3.12,'g','p'
2.75,'g','p'
3.19,'g','p'
2.94,'g','p'
2.85,'g','p'
2.41,'g','p'
3.14,'g','p'
2.88,'g','p'
2.6,'g','p'
2.49,'g','p'
3.18,'g','p'
3.11,'g','p'
3.2,'g','p'
2.74,'g','p'
2.87,'g','p'
3.53,'g','p'
2.69,'g','p'
3.28,'g','p'
3.55,'g','p'
3.04,'g','p'
2.96,'g','p'
2.9,'g','p'
2.87,'g','p'
3.31,'g','p'
2.56,'g','p'
3.28,'g','p'
3.04,'g','p'
2.53,'g','p'
3.09,'g','p'
3.88,'g','p'
3.26,'g','p'
2.69,'g','p'
2.86,'g','p'
3.15,'g','p'
2.86,'g','p'
2.97,'g','p'
3.1,'g','p'
3.24,'g','p'
2.82,'g','p'
3.44,'g','p'
2.68,'g','p'
2.81,'g','p'
2.71,'g','p'
3.16,'g','p'
2.91,'g','p'
3.2,'g','p'
2.82,'g','p'
3.31,'g','p'
2.57,'g','p'
3.15,'g','p'
3.47,'g','p'
3.46,'g','p'
2.84,'g','p'
2.7,'g','p'
2.42,'g','p'
2.73,'g','p'
3.28,'g','p'
2.81,'g','p'
3.47,'g','p'
3.39,'g','p'
2.64,'g','p'
2.71,'g','p'
3,'g','p'
2.7,'g','p'
2.8,'g','p'
2.66,'g','p'
2.91,'g','p'
3.05,'g','p'
3.01,'g','p'
2.81,'g','p'
3.31,'g','p'
2.99,'g','p'
2.82,'g','p'
3.07,'g','p'
2.78,'g','p'
3.13,'g','p'
3.16,'g','p'
2.69,'g','p'
2.79,'g','p'
2.99,'g','p'
3.35,'g','p'
3.14,'g','p'
3.18,'g','p'
3.09,'g','p'
3.1,'g','p'
2.71,'g','p'
3.15,'g','p'
2.68,'g','p'
2.87,'g','p'
3.86,'g','p'
2.84,'g','p'
3.18,'g','p'
3.05,'g','p'
2.81,'g','p'
2.1,'g','p'
2.56,'g','p'
3.2,'g','p'
3.01,'g','p'
3.13,'g','p'
3.32,'g','p'
2.83,'g','p'
2.84,'g','p'
3.48,'g','p'
3.56,'g','p'
2.39,'g','p'
2.91,'g','p'
3.02,'g','p'
2.99,'g','p'
3.15,'g','p'
3.54,'g','p'
2.64,'g','p'
2.54,'g','p'
3.19,'g','p'
2.55,'g','p'
3.15,'g','p'
2.5,'g','p'
2.86,'g','p'
2.7,'g','p'
2.92,'g','p'
2.93,'g','p'
3.07,'g','p'
3.27,'g','p'
2.2,'g','p'
2.76,'g','p'
3.07,'g','p'
3.23,'g','p'
2.84,'g','p'
3.55,'g','p'
3.36,'g','p'
3.21,'g','p'
3.16,'g','p'
3.25,'g','p'
3.16,'g','p'
2.61,'g','p'
3.58,'g','p'
3.2,'g','p'
3.52,'g','p'
3.17,'g','p'
2.97,'g','p'
2.89,'g','p'
2.84,'g','p'
3.12,'g','p'
2.73,'g','p'
2.58,'g','p'
3.54,'g','p'
2.59,'g','p'
2.69,'g','p'
3.57,'g','p'
2.95,'g','p'
3.11,'g','p'
3.21,'g','p'
2.8,'g','p'
2.94,'g','p'
2.81,'g','p'
2.7,'g','p'
3.48,'g','p'
3.28,'g','p'
2.77,'g','p'
3.43,'g','p'
3.01,'g','p'
3.36,'g','p'
3.15,'g','p'
3.12,'g','p'
2.79,'g','p'
2.84,'g','p'
2.53,'g','p'
2.77,'g','p'
2.67,'g','p'
3.18,'g','p'
3.36,'g','p'
2.73,'g','p'
3.16,'g','p'
3.36,'g','p'
2.66,'g','p'
3.26,'g','p'
3.08,'g','p'
3.55,'g','p'
2.83,'g','p'
2.73,'g','p'
2.95,'g','p'
3.02,'g','p'
2.85,'g','p'
2.54,'g','p'
3.36,'g','p'
3.78,'g','p'
3.38,'g','p'
3.14,'g','p'
2.81,'g','p'
2.98,'g','p'
3.35,'g','p'
3.28,'g','p'
2.87,'g','p'
2.84,'g','p'
3.01,'g','p'
3.53,'g','p'
3.2,'g','p'
3.08,'g','p'
2.79,'g','p'
2.73,'g','p'
2.67,'g','p'
2.86,'g','p'
3.13,'g','p'
2.8,'g','p'
2.76,'g','p'
2.95,'g','p'
3.03,'g','p'
3.09,'g','p'
3.3,'g','p'
3.14,'g','p'
3.33,'g','p'
2.78,'g','p'
2.85,'g','p'
3.09,'g','p'
3.18,'g','p'
2.9,'g','p'
2.51,'g','p'
3.01,'g','p'
2.73,'g','p'
2.84,'g','p'
2.65,'g','p'
2.87,'g','p'
2.56,'g','p'
3.97,'g','p'
2.7,'g','p'
3.28,'g','p'
2.6,'g','p'
2.66,'g','p'
3.12,'g','p'
3.15,'g','p'
2.47,'g','p'
3.3,'g','p'
3.19,'g','p'
3.17,'g','p'
3.61,'g','p'
3.04,'g','p'
2.57,'g','p'
2.85,'g','p'
3.41,'g','p'
2.97,'g','p'
2.76,'g','p'
3.34,'g','p'
3.53,'g','p'
2.6,'g','p'
2.35,'g','p'
2.88,'g','p'
2.59,'g','p'
3.52,'g','p'
2.62,'g','p'
2.88,'g','p'
2.9,'g','p'
3.36,'g','p'
3.19,'g','p'
2.92,'g','p'
2.63,'g','p'
2.91,'g','p'
2.82,'g','p'
3.33,'g','p'
2.75,'g','p'
2.63,'g','p'
2.62,'g','p'
2.4,'g','p'
3.09,'g','p'
3.53,'g','p'
3,'g','p'
2.88,'g','p'
2.59,'g','p'
2.59,'g','p'
3.01,'g','p'
2.54,'g','p'
2.48,'g','p'
2.96,'g','p'
3.63,'g','p'
3.36,'g','p'
2.72,'g','p'
2.79,'g','p'
2.97,'g','p'
3.26,'g','p'
2.98,'g','p'
2.69,'g','p'
2.51,'g','p'
3.69,'g','p'
2.67,'g','p'
2.22,'g','p'
2.68,'g','p'
3.05,'g','p'
2.69,'g','p'
3.11,'g','p'
3.68,'g','p'
2.75,'g','p'
2.92,'g','p'
3.15,'g','p'
3.25,'g','p'
3,'g','p'
2.62,'g','p'
3.5,'g','p'
3.28,'g','p'
4.07,'g','p'
3.14,'g','p'
2.82,'g','p'
3.49,'g','p'
3.21,'g','p'
2.98,'g','p'
3.17,'g','p'
2.62,'g','p'
2.9,'g','p'
3.23,'g','p'
2.83,'g','p'
3.11,'g','p'
3.01,'g','p'
3.5,'g','p'
2.73,'g','p'
3,'g','p'
3.35,'g','p'
2.78,'g','p'
3.09,'g','p'
3.08,'g','p'
3.5,'g','p'
3.09,'g','p'
3.16,'g','p'
3.26,'g','p'
3.28,'g','p'
2.84,'g','p'
3.41,'g','p'
3.04,'g','p'
3.25,'g','p'
2.83,'g','p'
3.33,'g','p'
3.15,'g','p'
3.18,'g','p'
3.52,'g','p'
3.15,'g','p'
3.48,'g','p'
2.67,'g','p'
2.65,'g','p'
1.64,'g','p'
1.88,'g','p'
2.09,'g','p'
1.14,'g','p'
2.04,'g','p'
2.16,'g','p'
2.38,'g','p'
1.63,'g','p'
1.87,'g','p'
1.62,'g','p'
1.86,'g','p'
2.52,'g','p'
1.79,'g','p'
1.62,'g','p'
1.07,'g','p'
2.29,'g','p'
2.33,'g','p'
2.63,'g','p'
2.17,'g','p'
1.92,'g','p'
1.83,'g','p'
1.97,'g','p'
1.62,'g','p'
1.88,'g','p'
2.2,'g','p'
2.28,'g','p'
1.89,'g','p'
2.11,'g','p'
2,'g','p'
2.1,'g','p'
1.63,'g','p'
1.91,'g','p'
1.67,'g','p'
1.82,'g','p'
2.46,'g','p'
1.87,'g','p'
1.2,'g','p'
2.24,'g','p'
2.9,'g','p'
1.83,'g','p'
1.8,'g','p'
2.14,'g','p'
1.57,'g','p'
1.48,'g','p'
1.51,'g','p'
2.1,'g','p'
2.07,'g','p'
2.05,'g','p'
2.02,'g','p'
1.87,'g','p'
2.47,'g','p'
2.28,'g','p'
2.21,'g','p'
2.47,'g','p'
2.31,'g','p'
2,'g','p'
2.32,'g','p'
2.15,'g','p'
2.61,'g','p'
1.85,'g','p'
2.26,'g','p'
2.11,'g','p'
2.2,'g','p'
2.13,'g','p'
2.1,'g','p'
2.28,'g','p'
1.86,'g','p'
1.58,'g','p'
2.06,'g','p'
2.46,'g','p'
2.24,'g','p'
2.12,'g','p'
2.07,'g','p'
2.46,'g','p'
1.85,'g','p'
1.51,'g','p'
1.65,'g','p'
2.46,'g','p'
1.82,'g','p'
1.62,'g','p'
2.38,'g','p'
2.1,'g','p'
1.29,'g','p'
2.35,'g','p'
2.26,'g','p'
1.86,'g','p'
1.69,'g','p'
2.27,'g','p'
1.91,'g','p'
1.81,'g','p'
2.08,'g','p'
2.33,'g','p'
1.84,'g','p'
1.87,'g','p'
1.66,'g','p'
2.29,'g','p'
1.86,'g','p'
1.46,'g','p'
1.6,'g','p'
2.11,'g','p'
2.06,'g','p'
1.98,'g','p'
1.81,'g','p'
2.14,'g','p'
1.57,'g','p'
1.48,'g','p'
1.8,'g','p'
1.71,'g','p'
1.63,'g','p'
2.48,'g','p'
1.8,'g','p'
1.75,'g','p'
2.23,'g','p'
1.95,'g','p'
1.77,'g','p'
2.01,'g','p'
2.64,'g','p'
1.72,'g','p'
1.74,'g','p'
2.05,'g','p'
2.06,'g','p'
1.34,'g','p'
2.08,'g','p'
1.91,'g','p'
2.04,'g','p'
1.9,'g','p'
1.88,'g','p'
2.02,'g','p'
1.79,'g','p'
1.39,'g','p'
2.08,'g','p'
2.21,'g','p'
1.96,'g','p'
1.67,'g','p'
1.16,'g','p'
2.02,'g','p'
2.11,'g','p'
1.95,'g','p'
1.77,'g','p'
1.61,'g','p'
2.06,'g','p'
2,'g','p'
2.17,'g','p'
2.05,'g','p'
1.23,'g','p'
1.93,'g','p'
1.86,'g','p'
1.96,'g','p'
2,'g','p'
1.85,'g','p'
2.54,'g','p'
2.1,'g','p'
1.79,'g','p'
2.05,'g','p'
1.94,'g','p'
2.39,'g','p'
1.93,'g','p'
2.54,'g','p'
2.25,'g','p'
1.84,'g','p'
2.08,'g','p'
2.14,'g','p'
1.96,'g','p'
2.29,'g','p'
1.84,'g','p'
2.13,'g','p'
2.45,'g','p'
2.33,'g','p'
1.91,'g','p'
2.12,'g','p'
1.76,'g','p'
1.69,'g','p'
2.56,'g','p'
1.74,'g','p'
1.57,'g','p'
1.53,'g','p'
1.49,'g','p'
1.83,'g','p'
1.71,'g','p'
2.72,'g','p'
1.92,'g','p'
1.73,'g','p'
1.89,'g','p'
2.36,'g','p'
1.84,'g','p'
1.97,'g','p'
2.06,'g','p'
1.71,'g','p'
1.7,'g','p'
1.86,'g','p'
2.26,'g','p'
1.83,'g','p'
2.55,'g','p'
1.93,'g','p'
1.84,'g','p'
2.14,'g','p'
2.37,'g','p'
2.8,'g','p'
2.02,'g','p'
1.91,'g','p'
2.26,'g','p'
1.5,'g','p'
2.26,'g','p'
2.27,'g','p'
1.55,'g','p'
1.78,'g','p'
2.13,'g','p'
1.85,'g','p'
1.11,'g','p'
1.5,'g','p'
1.94,'g','p'
1.79,'g','p'
2.27,'g','p'
0.91,'g','p'
2.04,'g','p'
2.05,'g','p'
2.48,'g','p'
2.37,'g','p'
2,'g','p'
1.29,'g','p'
1.98,'g','p'
2.03,'g','p'
1.97,'g','p'
1.73,'g','p'
1.82,'g','p'
2.28,'g','p'
1.86,'g','p'
2.32,'g','p'
1.95,'g','p'
2.18,'g','p'
1.69,'g','p'
2.36,'g','p'
1.86,'g','p'
1.69,'g','p'
2.2,'g','p'
1.23,'g','p'
2.09,'g','p'
2.15,'g','p'
2.25,'g','p'
2.16,'g','p'
2.05,'g','p'
2.46,'g','p'
2.14,'g','p'
2.04,'g','p'
2.24,'g','p'
1.47,'g','p'
1.94,'g','p'
1.86,'g','p'
1.42,'g','p'
1.94,'g','p'
1.94,'g','p'
1.92,'g','p'
2.27,'g','p'
2.26,'g','p'
1.74,'g','p'
2.02,'g','p'
1.62,'g','p'
2.19,'g','p'
2.36,'g','p'
2.42,'g','p'
2.86,'g','p'
1.98,'g','p'
2.51,'g','p'
2.54,'g','p'
1.79,'g','p'
1.6,'g','p'
2.51,'g','p'
2.39,'g','p'
1.84,'g','p'
2.35,'g','p'
2.11,'g','p'
1.6,'g','p'
1.92,'g','p'
2.33,'g','p'
2.3,'g','p'
1.62,'g','p'
1.78,'g','p'
2.46,'g','p'
2.24,'g','p'
2.16,'g','p'
1.98,'g','p'
1.41,'g','p'
1.94,'g','p'
1.77,'g','p'
2.32,'g','p'
2.37,'g','p'
1.78,'g','p'
1.81,'g','p'
2.05,'g','p'
2.07,'g','p'
2.31,'g','p'
1.89,'g','p'
1.24,'g','p'
1.22,'g','p'
2,'g','p'
1.94,'g','p'
2.11,'g','p'
1.9,'g','p'
1.46,'g','p'
1.68,'g','p'
2.04,'g','p'
1.61,'g','p'
1.89,'g','p'
2.01,'g','p'
2.09,'g','p'
2.28,'g','p'
1.91,'g','p'
2,'g','p'
2.05,'g','p'
2.1,'g','p'
2.16,'g','p'
2.1,'g','p'
2.24,'g','p'
1.97,'g','p'
1.75,'g','p'
1.93,'g','p'
1.5,'g','p'
2.29,'g','p'
2.04,'g','p'
2.23,'g','p'
2.4,'g','p'
2.19,'g','p'
1.9,'g','p'
1.74,'g','p'
1.65,'g','p'
2.49,'g','p'
1.6,'g','p'
1.5,'g','p'
1.61,'g','p'
2.14,'g','p'
2.66,'g','p'
2.29,'g','p'
1.43,'g','p'
2.26,'g','p'
2.12,'g','p'
1.75,'g','p'
1.87,'g','p'
2.15,'g','p'
2.16,'g','p'
1.79,'g','p'
2.09,'g','p'
2.28,'g','p'
2.23,'g','p'
2.34,'g','p'
1.8,'g','p'
2.13,'g','p'
1.82,'g','p'
2,'g','p'
1.89,'g','p'
2.49,'g','p'
1.39,'g','p'
1.73,'g','p'
1.84,'g','p'
8.71,'d','p'
10.12,'d','p'
13.58,'d','p'
12.4,'d','p'
10.79,'d','p'
10.63,'d','p'
11.44,'d','p'
16.81,'d','p'
11.73,'d','p'
12.65,'d','p'
12.26,'d','p'
11.2,'d','p'
9.01,'d','p'
11.69,'d','p'
10.7,'d','p'
9.64,'d','p'
12.19,'d','p'
11.06,'d','p'
8.56,'d','p'
15.39,'d','p'
14.17,'d','p'
14.62,'d','p'
15.87,'d','p'
13.71,'d','p'
9.47,'d','p'
11.31,'d','p'
11.92,'d','p'
9.61,'d','p'
11.37,'d','p'
12.32,'d','p'
11.75,'d','p'
14.86,'d','p'
13.53,'d','p'
6.66,'d','p'
10.72,'d','p'
7.99,'d','p'
12.64,'d','p'
10.44,'d','p'
13.21,'d','p'
9.44,'d','p'
10.83,'d','p'
12.15,'d','p'
9.99,'d','p'
14,'d','p'
10.84,'d','p'
11.34,'d','p'
11,'d','p'
13.19,'d','p'
9.18,'d','p'
12.23,'d','p'
12.43,'d','p'
10.36,'d','p'
12.32,'d','p'
11.91,'d','p'
11.68,'d','p'
14.53,'d','p'
8.65,'d','p'
13.97,'d','p'
14.08,'d','p'
11.7,'d','p'
10.96,'d','p'
13.23,'d','p'
9.89,'d','p'
12.74,'d','p'
12.9,'d','p'
8.92,'d','p'
13.88,'d','p'
13.5,'d','p'
10.86,'d','p'
16.17,'d','p'
13.26,'d','p'
13.79,'d','p'
11.78,'d','p'
10.82,'d','p'
13.78,'d','p'
9.29,'d','p'
12.82,'d','p'
7.62,'d','p'
14.69,'d','p'
10.12,'d','p'
12.8,'d','p'
13.02,'d','p'
11.04,'d','p'
12.08,'d','p'
12.04,'d','p'
13.44,'d','p'
13.63,'d','p'
13.42,'d','p'
16.84,'d','p'
14.05,'d','p'
12.84,'d','p'
14.39,'d','p'
16.82,'d','p'
10.35,'d','p'
12.45,'d','p'
11.83,'d','p'
12.18,'d','p'
11.95,'d','p'
12.64,'d','p'
12.46,'d','p'
10.73,'d','p'
13.59,'d','p'
13.62,'d','p'
9.83,'d','p'
12.19,'d','p'
11.36,'d','p'
17.55,'d','p'
9.92,'d','p'
9.91,'d','p'
11.64,'d','p'
10.22,'d','p'
13.28,'d','p'
12.31,'d','p'
13.26,'d','p'
10.64,'d','p'
12.58,'d','p'
16.05,'d','p'
12.03,'d','p'
10.67,'d','p'
8.72,'d','p'
14.36,'d','p'
12.4,'d','p'
14.56,'d','p'
9.42,'d','p'
10.33,'d','p'
13.26,'d','p'
11.05,'d','p'
10.11,'d','p'
11.87,'d','p'
13.06,'d','p'
10.83,'d','p'
13.01,'d','p'
6.76,'d','p'
13.95,'d','p'
12.08,'d','p'
11.49,'d','p'
11.81,'d','p'
16.89,'d','p'
9.7,'d','p'
11.88,'d','p'
15.41,'d','p'
12.16,'d','p'
12.84,'d','p'
14.01,'d','p'
12.56,'d','p'
12.8,'d','p'
11.74,'d','p'
12.47,'d','p'
10.43,'d','p'
12.19,'d','p'
14.27,'d','p'
11.8,'d','p'
12.44,'d','p'
10.55,'d','p'
11.05,'d','p'
13.61,'d','p'
12.36,'d','p'
8.95,'d','p'
12.9,'d','p'
14.2,'d','p'
8.73,'d','p'
10.29,'d','p'
10.09,'d','p'
12.44,'d','p'
12.08,'d','p'
10.73,'d','p'
16.1,'d','p'
13.3,'d','p'
9.87,'d','p'
11.7,'d','p'
12.02,'d','p'
12.53,'d','p'
9.79,'d','p'
10.31,'d','p'
8.62,'d','p'
12.22,'d','p'
11.6,'d','p'
12.22,'d','p'
6.64,'d','p'
14.67,'d','p'
14.93,'d','p'
11.47,'d','p'
16.8,'d','p'
9.05,'d','p'
14.33,'d','p'
9.47,'d','p'
13.33,'d','p'
10.14,'d','p'
12.88,'d','p'
12.81,'d','p'
10.27,'d','p'
10.69,'d','p'
13.77,'d','p'
11.01,'d','p'
17.24,'d','p'
10.77,'d','p'
12.03,'d','p'
11.47,'d','p'
10.38,'d','p'
15.37,'d','p'
12.03,'d','p'
10.48,'d','p'
13.22,'d','p'
13,'d','p'
14.89,'d','p'
9.21,'d','p'
8.96,'d','p'
12.81,'d','p'
11.58,'d','p'
14.05,'d','p'
12.38,'d','p'
14.2,'d','p'
13.64,'d','p'
13.04,'d','p'
12.68,'d','p'
14.57,'d','p'
11.89,'d','p'
10.67,'d','p'
13.83,'d','p'
13.37,'d','p'
12.89,'d','p'
9.99,'d','p'
9.27,'d','p'
10.14,'d','p'
9.66,'d','p'
12.71,'d','p'
14.73,'d','p'
10.12,'d','p'
12.18,'d','p'
13.32,'d','p'
10.28,'d','p'
12.16,'d','p'
10.32,'d','p'
15.65,'d','p'
11.84,'d','p'
12.06,'d','p'
7.71,'d','p'
10.6,'d','p'
14.22,'d','p'
13.42,'d','p'
14.59,'d','p'
12.94,'d','p'
11.68,'d','p'
14.64,'d','p'
9.45,'d','p'
12.89,'d','p'
15.41,'d','p'
8.59,'d','p'
10.83,'d','p'
13.24,'d','p'
13.48,'d','p'
12.2,'d','p'
10.99,'d','p'
11.33,'d','p'
13.52,'d','p'
13.13,'d','p'
9.81,'d','p'
10.73,'d','p'
10.19,'d','p'
10.89,'d','p'
11.26,'d','p'
9.17,'d','p'
12.3,'d','p'
10.17,'d','p'
10.45,'d','p'
13.05,'d','p'
15.53,'d','p'
8.47,'d','p'
12.89,'d','p'
10.43,'d','p'
9.66,'d','p'
10.47,'d','p'
9.95,'d','p'
11.5,'d','p'
10.82,'d','p'
17.02,'d','p'
9.09,'d','p'
12.43,'d','p'
13.6,'d','p'
10.07,'d','p'
12.75,'d','p'
13.11,'d','p'
13.06,'d','p'
9.08,'d','p'
12.96,'d','p'
11.04,'d','p'
14.76,'d','p'
11.61,'d','p'
11.39,'d','p'
11.52,'d','p'
13.69,'d','p'
13.25,'d','p'
11.6,'d','p'
11.44,'d','p'
15.29,'d','p'
10.01,'d','p'
12.37,'d','p'
14.97,'d','p'
10.86,'d','p'
11.14,'d','p'
10.03,'d','p'
13.31,'d','p'
6.71,'d','p'
9.74,'d','p'
11.38,'d','p'
13.1,'d','p'
13.56,'d','p'
7.56,'d','p'
10.65,'d','p'
9.63,'d','p'
13.45,'d','p'
11.61,'d','p'
11.69,'d','p'
11.49,'d','p'
13.65,'d','p'
10.55,'d','p'
7.25,'d','p'
15.54,'d','p'
12.06,'d','p'
12.95,'d','p'
11.9,'d','p'
13.35,'d','p'
9.63,'d','p'
11.49,'d','p'
10.35,'d','p'
13.44,'d','p'
13.19,'d','p'
12.43,'d','p'
10.18,'d','p'
12.44,'d','p'
13.68,'d','p'
11.54,'d','p'
9.55,'d','p'
8.98,'d','p'
10.11,'d','p'
14.82,'d','p'
11.91,'d','p'
14.02,'d','p'
9.41,'d','p'
7.24,'d','p'
15.86,'d','p'
11.25,'d','p'
9.82,'d','p'
13.23,'d','p'
12.56,'d','p'
14.03,'d','p'
9.84,'d','p'
12.98,'d','p'
8.73,'d','p'
13.99,'d','p'
12.48,'d','p'
12.31,'d','p'
10.17,'d','p'
5.39,'g','e'
8.64,'d','e'
7.8,'g','e'
7.54,'d','e'
6.7,'g','e'
6.39,'g','e'
6.83,'d','e'
7.52,'d','e'
7.27,'d','e'
7.17,'d','e'
5.91,'d','e'
7.46,'g','e'
7.86,'d','e'
6.58,'d','e'
5.2,'g','e'
7.03,'g','e'
7.29,'d','e'
7.98,'g','e'
6.96,'g','e'
6.56,'d','e'
7.12,'d','e'
6.18,'g','e'
9.13,'d','e'
7.04,'d','e'
6.79,'d','e'
8.33,'d','e'
6.36,'d','e'
7.27,'g','e'
7.31,'d','e'
7.28,'d','e'
8.03,'d','e'
7.6,'g','e'
8.54,'g','e'
7.61,'g','e'
7.93,'g','e'
8.53,'d','e'
6.9,'d','e'
6.52,'g','e'
8.55,'d','e'
6.32,'d','e'
5.84,'g','e'
8.3,'d','e'
5.88,'g','e'
8.28,'d','e'
6.58,'g','e'
6.71,'g','e'
7.49,'d','e'
5.96,'d','e'
5.79,'g','e'
4.76,'d','e'
7.15,'d','e'
7.33,'d','e'
7.53,'d','e'
5.51,'d','e'
5.78,'g','e'
7.69,'d','e'
7.66,'g','e'
7.13,'g','e'
6.69,'d','e'
7.52,'g','e'
7.05,'d','e'
7.57,'g','e'
4.26,'g','e'
6.33,'g','e'
6.42,'d','e'
7.55,'d','e'
8.03,'d','e'
7.06,'d','e'
5.72,'d','e'
7.69,'g','e'
7.18,'d','e'
6.7,'g','e'
7.62,'d','e'
6.9,'g','e'
6.82,'d','e'
7.45,'d','e'
6.42,'g','e'
6.34,'g','e'
8.07,'g','e'
7.02,'d','e'
5.42,'g','e'
7.73,'d','e'
6.15,'d','e'
6.94,'g','e'
7.31,'d','e'
7.46,'d','e'
6.51,'g','e'
6.86,'g','e'
5.24,'g','e'
7.57,'d','e'
6.29,'g','e'
7.88,'g','e'
6.61,'g','e'
8.08,'g','e'
7.35,'g','e'
6.05,'g','e'
7.91,'g','e'
7.85,'g','e'
6.82,'d','e'
7.48,'d','e'
7.91,'g','e'
5.4,'d','e'
8.11,'g','e'
7.17,'d','e'
7.7,'g','e'
5.93,'g','e'
7.15,'g','e'
6.98,'g','e'
6.67,'d','e'
5.72,'g','e'
5.22,'d','e'
6.4,'g','e'
7.86,'g','e'
7.82,'d','e'
7.74,'g','e'
5.69,'g','e'
9.27,'d','e'
5.99,'g','e'
6.87,'g','e'
5.86,'d','e'
4.96,'d','e'
6.53,'g','e'
6.71,'g','e'
7.02,'d','e'
7.58,'g','e'
7.21,'d','e'
6.16,'g','e'
7.25,'g','e'
6.24,'g','e'
3.83,'g','e'
6.56,'g','e'
5.74,'g','e'
7.37,'g','e'
6.38,'g','e'
6.92,'d','e'
7.22,'g','e'
8.71,'g','e'
6.39,'d','e'
8.07,'d','e'
6.37,'d','e'
6.8,'g','e'
7.42,'g','e'
4.65,'d','e'
9.09,'d','e'
6.66,'g','e'
8.46,'d','e'
7.82,'d','e'
7.46,'g','e'
6.69,'d','e'
4.79,'g','e'
8.41,'d','e'
6.73,'g','e'
7.7,'g','e'
8.07,'g','e'
7.19,'g','e'
6.42,'g','e'
6.26,'d','e'
8.09,'g','e'
6.68,'d','e'
7.33,'d','e'
7.32,'g','e'
7.23,'d','e'
7.02,'d','e'
7.68,'d','e'
7.72,'g','e'
6.18,'d','e'
7.93,'d','e'
7.19,'d','e'
6.68,'d','e'
6.15,'g','e'
7.77,'d','e'
6.4,'g','e'
5.63,'g','e'
8.49,'g','e'
6.58,'g','e'
8.22,'g','e'
9.16,'d','e'
7.69,'d','e'
6.72,'d','e'
6.21,'d','e'
6.23,'g','e'
7.5,'d','e'
8.19,'d','e'
6,'g','e'
7.96,'g','e'
7.38,'d','e'
6.91,'d','e'
8.6,'d','e'
8.88,'g','e'
7.52,'g','e'
7.28,'d','e'
7.95,'g','e'
7.36,'g','e'
9.13,'d','e'
7.42,'d','e'
7.81,'d','e'
7.06,'d','e'
7.22,'d','e'
7.27,'d','e'
6.32,'g','e'
7.24,'d','e'
8.24,'g','e'
6.44,'g','e'
6.72,'d','e'
6.53,'g','e'
5.66,'d','e'
7.12,'g','e'
6.87,'g','e'
8.9,'g','e'
6.35,'d','e'
7.95,'d','e'
7.65,'d','e'
6.61,'g','e'
7.58,'g','e'
5.54,'g','e'
6.01,'g','e'
5.92,'d','e'
6.34,'g','e'
6.73,'g','e'
6.95,'d','e'
7.01,'g','e'
6.43,'g','e'
5.75,'g','e'
7.82,'d','e'
7.5,'g','e'
6.67,'g','e'
5.97,'d','e'
6.68,'d','e'
7.13,'d','e'
8.17,'g','e'
8.42,'d','e'
7.89,'d','e'
6.25,'g','e'
5.87,'g','e'
6.54,'d','e'
7.63,'d','e'
6.6,'g','e'
7.46,'d','e'
7.86,'d','e'
5.43,'d','e'
9.39,'g','e'
6.99,'d','e'
6.31,'g','e'
7.63,'g','e'
6.05,'d','e'
6.59,'g','e'
8.06,'d','e'
5.89,'d','e'
7.7,'g','e'
6.6,'g','e'
7.13,'d','e'
7.68,'d','e'
6.47,'d','e'
6.96,'d','e'
6.85,'d','e'
7,'d','e'
5.16,'d','e'
7.22,'g','e'
5.59,'g','e'
7.17,'d','e'
6.19,'d','e'
8.02,'d','e'
5.61,'d','e'
8.43,'d','e'
6.4,'g','e'
5.37,'g','e'
5.88,'d','e'
6.74,'d','e'
5.42,'g','e'
8.17,'d','e'
8.3,'g','e'
7.32,'d','e'
7.41,'g','e'
5.7,'g','e'
6.15,'d','e'
8.19,'d','e'
8.49,'d','e'
7.38,'g','e'
8.46,'g','e'
6.85,'g','e'
8.06,'d','e'
7.48,'d','e'
7.1,'d','e'
7.3,'d','e'
6.78,'d','e'
7.75,'d','e'
7.14,'d','e'
8.03,'d','e'
6.72,'d','e'
7.56,'g','e'
6.29,'g','e'
5.36,'d','e'
7.26,'d','e'
6.3,'g','e'
5.69,'d','e'
8.99,'g','e'
8.36,'d','e'
7.85,'d','e'
6.58,'d','e'
6.66,'d','e'
8.5,'g','e'
6.64,'g','e'
6.46,'g','e'
6.01,'d','e'
6.94,'g','e'
7.53,'g','e'
6.59,'g','e'
6.43,'d','e'
7.36,'g','e'
7.28,'d','e'
7.58,'g','e'
6.48,'g','e'
5.86,'d','e'
6.6,'g','e'
6.51,'d','e'
9.67,'g','e'
7.87,'d','e'
8.99,'g','e'
5.63,'g','e'
7.65,'d','e'
6.6,'d','e'
6.79,'d','e'
6.94,'d','e'
4.67,'g','e'
8.33,'g','e'
5.86,'g','e'
6.43,'d','e'
5.59,'g','e'
6.71,'d','e'
8.61,'d','e'
6.25,'g','e'
7.18,'d','e'
6.87,'g','e'
6.67,'d','e'
7.77,'d','e'
8.72,'g','e'
7.56,'g','e'
6.83,'d','e'
6.84,'g','e'
6.97,'d','e'
7.62,'g','e'
5.75,'g','e'
7.5,'d','e'
5.52,'g','e'
6.14,'d','e'
5.84,'g','e'
6.24,'d','e'
8.37,'g','e'
5.68,'d','e'
7.77,'g','e'
6.91,'g','e'
8.31,'g','e'
6.15,'g','e'
8.34,'d','p'
8.74,'d','p'
5.64,'d','p'
7.03,'d','p'
8.82,'d','p'
7.49,'d','p'
7.61,'d','p'
6.8,'d','p'
7.25,'d','p'
7.74,'d','p'
7.31,'d','p'
7.91,'d','p'
7.48,'d','p'
7.84,'d','p'
6.7,'d','p'
7.81,'d','p'
7.07,'d','p'
7.4,'d','p'
7.79,'d','p'
6.95,'d','p'
7.78,'d','p'
8.52,'d','p'
6.92,'d','p'
7.76,'d','p'
6.2,'d','p'
7.71,'d','p'
7.91,'d','p'
7.51,'d','p'
7.92,'d','p'
7.92,'d','p'
6,'d','p'
6.13,'d','p'
7.2,'d','p'
9.1,'d','p'
9.08,'d','p'
7.18,'d','p'
7.95,'d','p'
5.73,'d','p'
7.58,'d','p'
7.93,'d','p'
6.13,'d','p'
6.87,'d','p'
6.19,'d','p'
8.85,'d','p'
6.33,'d','p'
8.55,'d','p'
7.15,'d','p'
6.44,'d','p'
6.27,'d','p'
8.75,'d','p'
6.74,'d','p'
9.25,'d','p'
8.15,'d','p'
7.15,'d','p'
7.47,'d','p'
7.36,'d','p'
7.08,'d','p'
9.05,'d','p'
6.75,'d','p'
6.53,'d','p'
7.36,'d','p'
7.48,'d','p'
6.45,'d','p'
7.98,'d','p'
7.41,'d','p'
6.73,'d','p'
6.33,'d','p'
8.01,'d','p'
7.61,'d','p'
6.87,'d','p'
7.43,'d','p'
7.31,'d','p'
5.75,'d','p'
7.91,'d','p'
8.39,'d','p'
8.48,'d','p'
8.37,'d','p'
6.76,'d','p'
8.71,'d','p'
7.88,'d','p'
6.59,'d','p'
6.68,'d','p'
8.28,'d','p'
7.03,'d','p'
5.88,'d','p'
7.21,'d','p'
6.57,'d','p'
7.79,'d','p'
9.81,'d','p'
7.17,'d','p'
6.53,'d','p'
6.71,'d','p'
8.32,'d','p'
6.73,'d','p'
7.66,'d','p'
9.03,'d','p'
6.93,'d','p'
8.82,'d','p'
6.45,'d','p'
7.42,'d','p'
6.73,'d','p'
6.99,'d','p'
7.75,'d','p'
6.75,'d','p'
9.36,'d','p'
8.91,'d','p'
8.39,'d','p'
7.49,'d','p'
8.59,'d','p'
8.8,'d','p'
7.89,'d','p'
6.79,'d','p'
6.67,'d','p'
6.6,'d','p'
7.15,'d','p'
6.97,'d','p'
8.61,'d','p'
7.68,'d','p'
6.17,'d','p'
8.26,'d','p'
5.98,'d','p'
8.28,'d','p'
8.24,'d','p'
8.74,'d','p'
7.41,'d','p'
7.17,'d','p'
8.5,'d','p'
8.71,'d','p'
5.74,'d','p'
7.78,'d','p'
7.25,'d','p'
6.39,'d','p'
7.41,'d','p'
6.82,'d','p'
6.39,'d','p'
7.01,'d','p'
9.1,'d','p'
8.37,'d','p'
6.12,'d','p'
7.88,'d','p'
6.73,'d','p'
7.69,'d','p'
7.33,'d','p'
7.83,'d','p'
8.44,'d','p'
7.89,'d','p'
7.52,'d','p'
5.92,'d','p'
6.05,'d','p'
8,'d','p'
8.6,'d','p'
6.93,'d','p'
7.74,'d','p'
7.34,'d','p'
8.24,'d','p'
8.33,'d','p'
7.61,'d','p'
8.18,'d','p'
7.06,'d','p'
7.49,'d','p'
7.68,'d','p'
7.03,'d','p'
7.17,'d','p'
8.4,'d','p'
6.95,'d','p'
7.63,'d','p'
7.95,'d','p'
7.54,'d','p'
7.19,'d','p'
7.19,'d','p'
7.31,'d','p'
6.84,'d','p'
9.06,'d','p'
7.36,'d','p'
6.66,'d','p'
8.83,'d','p'
6.65,'d','p'
7.96,'d','p'
6.2,'d','p'
8.28,'d','p'
8.21,'d','p'
6.67,'d','p'
8.11,'d','p'
8.29,'d','p'
8.64,'d','p'
7.56,'d','p'
7.37,'d','p'
9.38,'d','p'
7.94,'d','p'
7.83,'d','p'
7.63,'d','p'
7.05,'d','p'
7.4,'d','p'
5.41,'d','p'
8.63,'d','p'
8.34,'d','p'
7.19,'d','p'
7.37,'d','p'
7.01,'d','p'
7.16,'d','p'
7.79,'d','p'
7.76,'d','p'
7.82,'d','p'
6.97,'d','p'
7.6,'d','p'
8.64,'d','p'
7.29,'d','p'
6.54,'d','p'
7.19,'d','p'
7.89,'d','p'
7.41,'d','p'
7.78,'d','p'
8.49,'d','p'
8.79,'d','p'
7.59,'d','p'
7.54,'d','p'
7.1,'d','p'
6.8,'d','p'
7.46,'d','p'
7.18,'d','p'
9.23,'d','p'
6.75,'d','p'
5.94,'d','p'
7.74,'d','p'
7.2,'d','p'
7.79,'d','p'
7.29,'d','p'
6.66,'d','p'
6.89,'d','p'
7.11,'d','p'
7.9,'d','p'
6.93,'d','p'
8.45,'d','p'
8.77,'d','p'
7.94,'d','p'
6.98,'d','p'
8.21,'d','p'
8.02,'d','p'
6.69,'d','p'
7.04,'d','p'
9.51,'d','p'
5.8,'d','p'
8.88,'d','p'
7.17,'d','p'
7.86,'d','p'
8.56,'d','p'
8.05,'d','p'
9.02,'d','p'
7.37,'d','p'
7.02,'d','p'
9.27,'d','p'
8.35,'d','p'
7.82,'d','p'
6.16,'d','p'
6.21,'d','p'
6.83,'d','p'
7.63,'d','p'
6.78,'d','p'
7.55,'d','p'
6.16,'d','p'
6.7,'d','p'
7.29,'d','p'
7.8,'d','p'
7.89,'d','p'
6.34,'d','p'
7.09,'d','p'
8.14,'d','p'
7.02,'d','p'
8.18,'d','p'
9.51,'d','p'
7.29,'d','p'
7.18,'d','p'
6.29,'d','p'
7.23,'d','p'
6.93,'d','p'
7.53,'d','p'
7.74,'d','p'
6.33,'d','p'
6.88,'d','p'
8.23,'d','p'
7.5,'d','p'
7.22,'d','p'
7.86,'d','p'
7.43,'d','p'
7.11,'d','p'
6.55,'d','p'
5.79,'d','p'
7.17,'d','p'
6.91,'d','p'
7.24,'d','p'
6.79,'d','p'
8,'d','p'
5.74,'d','p'
8.4,'d','p'
8.22,'d','p'
7.81,'d','p'
7.86,'d','p'
7.27,'d','p'
7.9,'d','p'
7.26,'d','p'
6.99,'d','p'
7.21,'d','p'
8.58,'d','p'
7.5,'d','p'
6.62,'d','p'
6.61,'d','p'
7.22,'d','p'
5.77,'d','p'
6.59,'d','p'
7.83,'d','p'
7.7,'d','p'
7.25,'d','p'
7.37,'d','p'
7.9,'d','p'
8.55,'d','p'
7.36,'d','p'
7.69,'d','p'
8.36,'d','p'
6.79,'d','p'
7.15,'d','p'
6.15,'d','p'
8.51,'d','p'
8.26,'d','p'
8.7,'d','p'
7.95,'d','p'
7.74,'d','p'
7.66,'d','p'
6.99,'d','p'
8.04,'d','p'
7.02,'d','p'
8.53,'d','p'
5.7,'d','p'
7.66,'d','p'
8.14,'d','p'
7.86,'d','p'
7.27,'d','p'
7.54,'d','p'
7.35,'d','p'
6.36,'d','p'
8.24,'d','p'
7.25,'d','p'
7.15,'d','p'
6.92,'d','p'
7.64,'d','p'
8.56,'d','p'
8.05,'d','p'
7.93,'d','p'
6.85,'d','p'
8.16,'d','p'
7.25,'d','p'
6.22,'d','p'
7.14,'d','p'
7.62,'d','p'
1,'g','p'
1.98,'g','p'
1.8,'g','p'
2.03,'g','p'
1.66,'g','p'
2.46,'g','p'
2.27,'g','p'
2.21,'g','p'
2.29,'g','p'
2.12,'g','p'
1.62,'g','p'
2.14,'g','p'
1.36,'g','p'
2.19,'g','p'
2.57,'g','p'
2.94,'g','p'
2.33,'g','p'
2.41,'g','p'
1.93,'g','p'
1.85,'g','p'
2.04,'g','p'
2.16,'g','p'
2.38,'g','p'
2.4,'g','p'
1.78,'g','p'
1.99,'g','p'
1.35,'g','p'
1.9,'g','p'
1.4,'g','p'
1.75,'g','p'
2.62,'g','p'
2.42,'g','p'
1.93,'g','p'
2.47,'g','p'
1.88,'g','p'
1.33,'g','p'
2.42,'g','p'
1.81,'g','p'
2.21,'g','p'
2.07,'g','p'
1.98,'g','p'
2.34,'g','p'
2.1,'g','p'
2.57,'g','p'
2.48,'g','p'
2.23,'g','p'
2.09,'g','p'
2.48,'g','p'
1.73,'g','p'
1.54,'g','p'
1.65,'g','p'
1.79,'g','p'
1.76,'g','p'
1.6,'g','p'
1.78,'g','p'
1.85,'g','p'
1.69,'g','p'
1.9,'g','p'
2.21,'g','p'
2.19,'g','p'
1.81,'g','p'
2.13,'g','p'
1.67,'g','p'
2.58,'g','p'
2,'g','p'
2.45,'g','p'
1.35,'g','p'
1.84,'g','p'
1.96,'g','p'
1.88,'g','p'
2.17,'g','p'
1.4,'g','p'
2.01,'g','p'
1.98,'g','p'
2.37,'g','p'
2.03,'g','p'
1.97,'g','p'
1.8,'g','p'
1.73,'g','p'
1.9,'g','p'
1.97,'g','p'
1.67,'g','p'
1.96,'g','p'
1,'g','p'
2.04,'g','p'
2.22,'g','p'
2.12,'g','p'
1.75,'g','p'
1.95,'g','p'
2.27,'g','p'
1.33,'g','p'
1.8,'g','p'
1.32,'g','p'
1.55,'g','p'
2.3,'g','p'
1.52,'g','p'
2.18,'g','p'
1.99,'g','p'
1.51,'g','p'
1.89,'g','p'
2.16,'g','p'
2.35,'g','p'
2.83,'g','p'
2.09,'g','p'
2.17,'g','p'
2.03,'g','p'
2.12,'g','p'
1.78,'g','p'
2.13,'g','p'
2.43,'g','p'
1.63,'g','p'
1.79,'g','p'
1.67,'g','p'
1.88,'g','p'
1.66,'g','p'
1.44,'g','p'
2.1,'g','p'
2.25,'g','p'
2.55,'g','p'
1.49,'g','p'
2.14,'g','p'
1.67,'g','p'
2.83,'g','p'
1.89,'g','p'
2.31,'g','p'
2.02,'g','p'
1.66,'g','p'
2.01,'g','p'
1.97,'g','p'
1.76,'g','p'
2.67,'g','p'
1.69,'g','p'
1.83,'g','p'
1.57,'g','p'
1.83,'g','p'
1.8,'g','p'
1.96,'g','p'
1.97,'g','p'
2.04,'g','p'
2.14,'g','p'
2.03,'g','p'
2.3,'g','p'
1.63,'g','p'
1.9,'g','p'
1.84,'g','p'
2.16,'g','p'
1.89,'g','p'
1.87,'g','p'
2.02,'g','p'
2.43,'g','p'
1.86,'g','p'
2.01,'g','p'
1.49,'g','p'
2.1,'g','p'
1.07,'g','p'
2.23,'g','p'
2.32,'g','p'
1.82,'g','p'
1.9,'g','p'
2.19,'g','p'
2.04,'g','p'
1.57,'g','p'
1.34,'g','p'
1.83,'g','p'
2.06,'g','p'
2.52,'g','p'
2.27,'g','p'
2.19,'g','p'
1.93,'g','p'
2.12,'g','p'
2.1,'g','p'
2.17,'g','p'
1.92,'g','p'
1.51,'g','p'
2,'g','p'
1.62,'g','p'
1.13,'g','p'
1.99,'g','p'
1.92,'g','p'
1.77,'g','p'
2.38,'g','p'
1.7,'g','p'
1.42,'g','p'
1.96,'g','p'
2.22,'g','p'
1.84,'g','p'
2.34,'g','p'
2.15,'g','p'
2.57,'g','p'
1.9,'g','p'
1.54,'g','p'
2.02,'g','p'
1.91,'g','p'
1.79,'g','p'
1.81,'g','p'
2.6,'g','p'
2.01,'g','p'
2.42,'g','p'
1.73,'g','p'
1.92,'g','p'
1.79,'g','p'
2.32,'g','p'
1.36,'g','p'
1.81,'g','p'
2.01,'g','p'
2.04,'g','p'
2.52,'g','p'
1.56,'g','p'
1.91,'g','p'
2.02,'g','p'
2.29,'g','p'
2.56,'g','p'
2.27,'g','p'
2,'g','p'
2.5,'g','p'
2.08,'g','p'
2.19,'g','p'
1.6,'g','p'
2.3,'g','p'
2.19,'g','p'
1.78,'g','p'
2.35,'g','p'
1.59,'g','p'
1.97,'g','p'
1.8,'g','p'
1.64,'g','p'
1.86,'g','p'
2.51,'g','p'
1.83,'g','p'
2.17,'g','p'
1.81,'g','p'
2.34,'g','p'
2.09,'g','p'
2.19,'g','p'
2.31,'g','p'
2.09,'g','p'
1.85,'g','p'
2.3,'g','p'
2.1,'g','p'
2.35,'g','p'
2.58,'g','p'
2.2,'g','p'
1.9,'g','p'
2.61,'g','p'
2.55,'g','p'
2.19,'g','p'
2.31,'g','p'
2.38,'g','p'
1.72,'g','p'
2.16,'g','p'
1.84,'g','p'
1.95,'g','p'
1.89,'g','p'
1.83,'g','p'
1.48,'g','p'
2.35,'g','p'
2.07,'g','p'
2.49,'g','p'
2.11,'g','p'
1.71,'g','p'
2.13,'g','p'
2.17,'g','p'
1.92,'g','p'
2,'g','p'
1.99,'g','p'
1.74,'g','p'
1.69,'g','p'
2.06,'g','p'
1.54,'g','p'
1.89,'g','p'
1.71,'g','p'
2.23,'g','p'
2.17,'g','p'
1.73,'g','p'
2.28,'g','p'
2.05,'g','p'
1.87,'g','p'
2.75,'g','p'
2,'g','p'
2.3,'g','p'
2.37,'g','p'
1.81,'g','p'
2.22,'g','p'
1.7,'g','p'
2.45,'g','p'
2.23,'g','p'
1.42,'g','p'
2.04,'g','p'
2.02,'g','p'
2.14,'g','p'
1.98,'g','p'
2.15,'g','p'
2.1,'g','p'
2.23,'g','p'
1.65,'g','p'
1.84,'g','p'
1.69,'g','p'
1.8,'g','p'
2.04,'g','p'
2.42,'g','p'
1.62,'g','p'
2.75,'g','p'
1.6,'g','p'
2.47,'g','p'
1.4,'g','p'
2,'g','p'
2.42,'g','p'
1.91,'g','p'
1.83,'g','p'
1.87,'g','p'
2.49,'g','p'
2.33,'g','p'
2.94,'g','p'
2.33,'g','p'
1.9,'g','p'
1.61,'g','p'
1.36,'g','p'
2.32,'g','p'
2.15,'g','p'
1.99,'g','p'
2.36,'g','p'
1.93,'g','p'
1.49,'g','p'
1.63,'g','p'
1.7,'g','p'
1.88,'g','p'
1.64,'g','p'
1.27,'g','p'
2.16,'g','p'
1.93,'g','p'
1.75,'g','p'
1.77,'g','p'
2.29,'g','p'
1.95,'g','p'
2.2,'g','p'
2.32,'g','p'
2.35,'g','p'
2.08,'g','p'
2.01,'g','p'
2.34,'g','p'
1.61,'g','p'
1.97,'g','p'
2.11,'g','p'
1.9,'g','p'
2.09,'g','p'
1.82,'g','p'
1.52,'g','p'
1.3,'g','p'
1.78,'g','p'
2.27,'g','p'
2.18,'g','p'
2.13,'g','p'
2.26,'g','p'
2.19,'m','p'
1.11,'d','p'
2.57,'m','p'
1.68,'g','p'
2.67,'d','p'
2.3,'g','p'
1.87,'g','p'
2.34,'g','p'
2.3,'d','p'
1.52,'g','p'
1.57,'g','p'
2.33,'d','p'
2.62,'m','p'
1.91,'d','p'
2.44,'d','p'
0.91,'d','p'
2.53,'m','p'
1.23,'g','p'
2.16,'m','p'
1.74,'m','p'
1.74,'g','p'
1.92,'d','p'
2.04,'g','p'
1.25,'m','p'
2.1,'d','p'
1.86,'m','p'
2.15,'g','p'
2.33,'d','p'
2.08,'g','p'
2.14,'m','p'
1.64,'m','p'
1.78,'m','p'
2,'m','p'
1.84,'m','p'
2.18,'m','p'
1.89,'m','p'
2.29,'d','p'
1.75,'m','p'
2.27,'m','p'
2.07,'d','p'
1.93,'g','p'
1.91,'m','p'
2.22,'d','p'
2.11,'g','p'
2.07,'g','p'
2.92,'d','p'
2.18,'m','p'
2.47,'d','p'
1.96,'m','p'
1.63,'d','p'
1.62,'m','p'
2.03,'g','p'
1.79,'g','p'
2,'g','p'
2.35,'m','p'
1.89,'g','p'
2.34,'m','p'
1.45,'d','p'
1.8,'m','p'
2.32,'d','p'
2.28,'m','p'
1.97,'d','p'
2.17,'d','p'
2.46,'m','p'
2.06,'g','p'
2.61,'g','p'
2.32,'m','p'
1.71,'m','p'
1.45,'m','p'
2.11,'g','p'
2.06,'g','p'
2.08,'g','p'
1.98,'g','p'
1.92,'d','p'
1.95,'m','p'
2.27,'m','p'
2.4,'g','p'
1.6,'g','p'
2.35,'g','p'
1.8,'d','p'
1.76,'m','p'
1.2,'m','p'
1.43,'g','p'
2.49,'m','p'
1.52,'g','p'
2.36,'g','p'
2.42,'g','p'
2.25,'d','p'
2.32,'g','p'
2.16,'m','p'
2.41,'m','p'
1.7,'m','p'
2.44,'g','p'
2.01,'d','p'
1.54,'g','p'
2.15,'g','p'
2.41,'d','p'
2.51,'g','p'
1.64,'m','p'
2.12,'m','p'
1.27,'m','p'
2.22,'d','p'
1.71,'m','p'
2.44,'g','p'
1.69,'m','p'
2.06,'d','p'
2.11,'g','p'
1.98,'m','p'
2.51,'g','p'
2.23,'d','p'
2.11,'d','p'
2.76,'d','p'
2.12,'d','p'
1.99,'d','p'
2.5,'d','p'
2,'m','p'
1.47,'g','p'
1.57,'d','p'
2.21,'g','p'
1.88,'d','p'
2.05,'g','p'
1.7,'d','p'
1.63,'d','p'
1.47,'m','p'
2.22,'m','p'
1.82,'g','p'
1.59,'m','p'
2.02,'g','p'
1.97,'d','p'
2.19,'g','p'
1.99,'m','p'
1.79,'d','p'
2.44,'g','p'
1.97,'m','p'
2.21,'m','p'
1.84,'d','p'
1.68,'g','p'
1.79,'m','p'
2.27,'m','p'
2.35,'d','p'
1.95,'m','p'
1.02,'m','p'
2.04,'m','p'
1.91,'m','p'
1.81,'d','p'
2.2,'m','p'
1.92,'m','p'
2.32,'g','p'
1.85,'d','p'
2.09,'m','p'
1.67,'g','p'
2.17,'d','p'
1.9,'m','p'
1.79,'m','p'
2.08,'d','p'
2.49,'d','p'
1.76,'g','p'
1.68,'d','p'
2.38,'m','p'
1.83,'g','p'
2.56,'m','p'
1.71,'m','p'
2.41,'m','p'
2.06,'d','p'
1.97,'d','p'
1.95,'d','p'
1.28,'g','p'
1.95,'m','p'
1.95,'d','p'
1.47,'g','p'
2.2,'m','p'
2.17,'g','p'
2,'d','p'
1.52,'g','p'
1.98,'m','p'
1.76,'d','p'
1.68,'m','p'
1.52,'m','p'
2.01,'m','p'
1.7,'g','p'
1.84,'g','p'
1.97,'m','p'
2.19,'g','p'
1.87,'m','p'
2.26,'d','p'
1.83,'m','p'
1.95,'m','p'
2.19,'m','p'
1.71,'d','p'
1.92,'g','p'
2.27,'g','p'
2.43,'d','p'
2.74,'g','p'
2.14,'g','p'
1.49,'g','p'
2.09,'d','p'
2.59,'m','p'
1.38,'m','p'
1.8,'g','p'
2.3,'d','p'
2.88,'g','p'
2.7,'g','p'
2.02,'g','p'
1.96,'d','p'
1.52,'m','p'
2.29,'g','p'
1.43,'d','p'
1.98,'d','p'
1.98,'m','p'
2.29,'m','p'
2.03,'m','p'
1.78,'d','p'
1.77,'g','p'
2.06,'m','p'
2.41,'g','p'
2.55,'g','p'
1.7,'m','p'
2.25,'g','p'
2.28,'m','p'
2.51,'d','p'
1.95,'d','p'
1.96,'m','p'
2.23,'m','p'
2.21,'g','p'
1.75,'g','p'
2.09,'m','p'
1.66,'g','p'
1.19,'g','p'
2.26,'g','p'
2.19,'m','p'
2.16,'d','p'
2.42,'g','p'
2.12,'m','p'
2.1,'d','p'
2.09,'g','p'
0.99,'m','p'
2.24,'g','p'
2.23,'g','p'
1.84,'d','p'
1.78,'d','p'
1.3,'d','p'
2.1,'g','p'
2.61,'g','p'
1.94,'m','p'
1.42,'d','p'
2.28,'d','p'
1.96,'d','p'
1.83,'d','p'
2.27,'g','p'
1.74,'d','p'
1.82,'d','p'
2.11,'m','p'
1.86,'g','p'
2.04,'d','p'
1.63,'g','p'
1.83,'g','p'
1.72,'g','p'
2.51,'g','p'
2.47,'m','p'
1.7,'g','p'
2.33,'m','p'
2.01,'g','p'
1.78,'m','p'
2.12,'m','p'
2.16,'m','p'
1.74,'d','p'
1.73,'m','p'
1.74,'m','p'
2.05,'m','p'
2.18,'m','p'
1.84,'d','p'
2.3,'g','p'
1.84,'m','p'
1.95,'d','p'
2.4,'g','p'
1.95,'d','p'
1.84,'d','p'
1.95,'d','p'
2.24,'m','p'
1.66,'g','p'
1.79,'d','p'
1.82,'d','p'
1.51,'g','p'
2.25,'m','p'
2.49,'d','p'
2.74,'d','p'
2.32,'m','p'
1.96,'g','p'
1.83,'m','p'
1.9,'d','p'
2.16,'d','p'
2.21,'m','p'
1.83,'m','p'
1.64,'g','p'
2.6,'m','p'
2.09,'d','p'
1.55,'m','p'
2.22,'g','p'
1.83,'m','p'
2.32,'g','p'
2.3,'g','p'
2.52,'d','p'
2.02,'g','p'
1.95,'g','p'
2.24,'g','p'
1.5,'d','p'
2.18,'d','p'
2.74,'m','p'
2.49,'d','p'
1.6,'g','p'
2.18,'d','p'
1.47,'m','p'
2.26,'g','p'
1.84,'d','p'
2.37,'g','p'
1.96,'m','p'
2.26,'d','p'
2.22,'g','p'
2.22,'d','p'
1.97,'g','p'
1.6,'m','p'
2.01,'m','p'
2.11,'g','p'
2.14,'g','p'
2.06,'d','p'
1.91,'m','p'
2.24,'d','p'
2.19,'g','p'
1.85,'m','p'
1.46,'g','p'
1.91,'g','p'
2.15,'g','p'
1.72,'g','p'
2.39,'g','p'
1.98,'d','p'
2.12,'d','p'
2.12,'d','p'
1.93,'m','p'
1.68,'m','p'
1.44,'m','p'
2.16,'d','p'
1.5,'d','p'
2.23,'g','p'
2.42,'g','p'
2.34,'m','p'
2.3,'m','p'
1.54,'d','p'
2.1,'g','p'
1.75,'m','p'
1.8,'m','p'
1.69,'g','p'
2.12,'m','p'
2.27,'m','p'
4.8,'g','e'
4.27,'g','e'
4.46,'d','e'
4.56,'d','e'
3.84,'d','e'
5.49,'g','e'
4.47,'d','e'
4.8,'g','e'
4.85,'d','e'
4.34,'d','e'
4.49,'g','e'
4.39,'d','e'
3.43,'g','e'
4.2,'g','e'
3.69,'g','e'
4.78,'g','e'
3.65,'d','e'
5.78,'g','e'
4.47,'d','e'
3.75,'g','e'
4.82,'g','e'
4.53,'d','e'
4.74,'g','e'
3.88,'d','e'
3.46,'g','e'
5.74,'g','e'
3.83,'g','e'
4.81,'g','e'
5.18,'g','e'
3.81,'g','e'
4.42,'d','e'
4.19,'d','e'
4.83,'d','e'
4.71,'d','e'
3.6,'d','e'
4.03,'d','e'
3.99,'g','e'
4.21,'g','e'
4.71,'d','e'
4.47,'d','e'
4.66,'d','e'
3.45,'g','e'
3.99,'d','e'
3.89,'g','e'
4.42,'d','e'
3.82,'g','e'
4.74,'g','e'
5.11,'g','e'
3.64,'g','e'
4.16,'d','e'
4.35,'g','e'
4.92,'g','e'
3.98,'g','e'
4.65,'g','e'
5.01,'d','e'
4.51,'d','e'
4.62,'g','e'
4.46,'g','e'
4.71,'g','e'
4.19,'g','e'
4.62,'g','e'
4.24,'g','e'
4.57,'d','e'
4.22,'d','e'
3.87,'d','e'
3.95,'d','e'
3.81,'g','e'
4.76,'d','e'
6.2,'g','e'
4.34,'d','e'
5.61,'g','e'
4,'d','e'
4.01,'d','e'
4.49,'g','e'
4.15,'d','e'
4.19,'d','e'
5.37,'g','e'
4.14,'g','e'
5.31,'d','e'
4.39,'d','e'
4.95,'g','e'
3.91,'d','e'
4.99,'g','e'
4.68,'d','e'
4.19,'d','e'
4.59,'g','e'
3.99,'d','e'
4.52,'d','e'
3.56,'g','e'
3.45,'d','e'
4.55,'d','e'
4.4,'g','e'
3.92,'d','e'
4.62,'g','e'
4.15,'g','e'
4.08,'d','e'
5.27,'d','e'
4.7,'g','e'
4.98,'g','e'
4.02,'d','e'
3.62,'g','e'
5.13,'g','e'
4.83,'g','e'
3.77,'g','e'
4.65,'d','e'
5.67,'g','e'
3.89,'g','e'
4.33,'d','e'
5.04,'d','e'
3.95,'g','e'
4.6,'d','e'
3.63,'d','e'
4.96,'d','e'
4.79,'d','e'
4.5,'g','e'
4.01,'d','e'
3.98,'d','e'
4.96,'d','e'
4.45,'d','e'
4.43,'g','e'
5.89,'d','e'
5.6,'d','e'
4.23,'d','e'
4.06,'d','e'
5.73,'d','e'
4.5,'g','e'
5.06,'d','e'
4.99,'g','e'
5.12,'d','e'
4.51,'d','e'
4.7,'d','e'
3.96,'g','e'
4.6,'d','e'
4.72,'d','e'
5.31,'d','e'
4.92,'g','e'
4.44,'d','e'
4.15,'d','e'
4.13,'g','e'
4.72,'g','e'
4.37,'g','e'
4.93,'d','e'
4.35,'g','e'
3.99,'d','e'
5.16,'d','e'
5.03,'g','e'
4.78,'g','e'
4.56,'g','e'
5.18,'d','e'
5.46,'d','e'
5.04,'g','e'
3.84,'g','e'
3.95,'d','e'
4.95,'g','e'
4.73,'d','e'
4.09,'d','e'
4.1,'d','e'
4.01,'g','e'
3.64,'d','e'
3.46,'d','e'
4.65,'g','e'
5.07,'d','e'
4.88,'d','e'
3.98,'g','e'
4.55,'d','e'
4.97,'d','e'
3.98,'g','e'
4.5,'d','e'
5.49,'d','e'
4.52,'g','e'
5,'g','e'
5.01,'g','e'
4.81,'d','e'
4.98,'g','e'
4.61,'d','e'
4.07,'g','e'
4.97,'d','e'
4.61,'d','e'
3.64,'d','e'
5.13,'g','e'
4.36,'d','e'
4.3,'g','e'
4.91,'g','e'
4.57,'g','e'
3.85,'g','e'
3.58,'d','e'
4.46,'g','e'
4.28,'g','e'
4.69,'g','e'
5.39,'g','e'
3.99,'d','e'
4.53,'d','e'
4.24,'d','e'
4.66,'g','e'
4.27,'g','e'
4.49,'g','e'
3.52,'d','e'
4.92,'g','e'
5.35,'d','e'
4.85,'g','e'
4.68,'g','e'
4.21,'d','e'
4.4,'d','e'
4,'d','e'
4.24,'d','e'
4.59,'g','e'
4.44,'g','e'
5.03,'d','e'
3.89,'g','e'
3.94,'g','e'
4.81,'g','e'
4.56,'d','e'
4.49,'d','e'
4,'g','e'
4.36,'d','e'
4.52,'g','e'
4.9,'g','e'
3.93,'g','e'
4.54,'g','e'
4.76,'d','e'
4.23,'d','e'
4.6,'g','e'
4.56,'g','e'
5.69,'g','e'
4.6,'g','e'
4.65,'d','e'
4.83,'g','e'
4.91,'g','e'
4.49,'g','e'
3.71,'d','e'
3.52,'d','e'
4.06,'d','e'
4.02,'g','e'
3.62,'g','e'
4.04,'g','e'
4.79,'d','e'
3.87,'d','e'
4.55,'g','e'
4.53,'g','e'
4.01,'d','e'
5.15,'d','e'
3.68,'g','e'
4.68,'d','e'
4.39,'d','e'
4.42,'g','e'
4.28,'d','e'
3.66,'d','e'
5.28,'g','e'
4.75,'g','e'
4.52,'g','e'
4.65,'d','e'
3.84,'d','e'
4.05,'g','e'
5.07,'g','e'
4.38,'d','e'
4.1,'d','e'
4.7,'d','e'
4.13,'d','e'
3.57,'d','e'
4.33,'d','e'
4.48,'d','e'
4.59,'g','e'
4.3,'d','e'
4.79,'d','e'
3.96,'d','e'
4.2,'d','e'
4.95,'g','e'
3.98,'d','e'
4.78,'g','e'
3.74,'g','e'
4.31,'g','e'
4.16,'g','e'
4.17,'g','e'
4.96,'g','e'
4.49,'g','e'
4.88,'d','e'
4.58,'g','e'
5.04,'d','e'
5.43,'d','e'
4.53,'g','e'
3.95,'g','e'
4.74,'g','e'
4.15,'d','e'
4.5,'d','e'
4.2,'d','e'
3.9,'g','e'
4.64,'d','e'
4.42,'d','e'
4.03,'d','e'
5.6,'g','e'
4.32,'g','e'
4.05,'d','e'
4.6,'g','e'
3.41,'d','e'
4.96,'g','e'
4.63,'d','e'
5.51,'g','e'
4.31,'g','e'
5.16,'g','e'
5.18,'d','e'
3.8,'d','e'
5.22,'g','e'
3.98,'g','e'
4.74,'g','e'
5.13,'d','e'
4.17,'g','e'
4.9,'g','e'
4.46,'d','e'
4.69,'d','e'
4.07,'d','e'
5.72,'d','e'
4.32,'d','e'
4.19,'g','e'
4.6,'g','e'
3.67,'d','e'
3.74,'d','e'
4.82,'g','e'
3.83,'g','e'
4.21,'g','e'
4.41,'g','e'
4.39,'g','e'
4.07,'d','e'
4.57,'g','e'
4.17,'g','e'
4.31,'g','e'
4.12,'g','e'
3.4,'d','e'
4.69,'g','e'
5.04,'d','e'
4.82,'d','e'
4.17,'d','e'
5.13,'g','e'
4.71,'g','e'
3.57,'g','e'
4.59,'g','e'
4.75,'g','e'
5.03,'g','e'
5.02,'d','e'
4.99,'g','e'
5.34,'d','e'
4.61,'d','e'
4.65,'d','e'
4.56,'d','e'
4.78,'d','e'
4.64,'d','e'
4.4,'d','e'
4.45,'d','e'
4.58,'d','e'
4.48,'d','e'
4.06,'d','e'
4.69,'d','e'
3.76,'d','e'
4.23,'g','e'
9.52,'d','p'
9.13,'d','p'
7.14,'d','p'
7.7,'d','p'
5.56,'d','p'
6.96,'d','p'
10.35,'d','p'
6.05,'d','p'
6.73,'d','p'
7.13,'d','p'
8.47,'d','p'
6.42,'d','p'
9.96,'d','p'
9.33,'d','p'
8.15,'d','p'
7.98,'d','p'
8.13,'d','p'
8.18,'d','p'
10.11,'d','p'
8.72,'d','p'
8.23,'d','p'
7.19,'d','p'
8.68,'d','p'
9.03,'d','p'
8.33,'d','p'
6.68,'d','p'
8.08,'d','p'
8.86,'d','p'
9.67,'d','p'
8.95,'d','p'
9.32,'d','p'
9.16,'d','p'
7.67,'d','p'
9.17,'d','p'
10.33,'d','p'
8.48,'d','p'
8.05,'d','p'
7.52,'d','p'
6.45,'d','p'
5.56,'d','p'
9.37,'d','p'
11.04,'d','p'
8.4,'d','p'
7.56,'d','p'
5.27,'d','p'
6.45,'d','p'
6.4,'d','p'
7.73,'d','p'
8.43,'d','p'
6.15,'d','p'
5.47,'d','p'
10.53,'d','p'
6.24,'d','p'
8.81,'d','p'
9.37,'d','p'
6.84,'d','p'
6.82,'d','p'
9.41,'d','p'
7.02,'d','p'
8.86,'d','p'
8.47,'d','p'
8.16,'d','p'
7.58,'d','p'
7.09,'d','p'
7.74,'d','p'
10.42,'d','p'
7.18,'d','p'
8.38,'d','p'
10.44,'d','p'
8.26,'d','p'
7.64,'d','p'
8.23,'d','p'
6.21,'d','p'
9.09,'d','p'
5.9,'d','p'
6.73,'d','p'
8.78,'d','p'
7.1,'d','p'
7.1,'d','p'
10.64,'d','p'
7.93,'d','p'
9.91,'d','p'
8,'d','p'
6.97,'d','p'
6.31,'d','p'
5.5,'d','p'
7.22,'d','p'
8.57,'d','p'
7.27,'d','p'
9.82,'d','p'
7.63,'d','p'
9.09,'d','p'
7.11,'d','p'
9.53,'d','p'
7.86,'d','p'
8.84,'d','p'
7.63,'d','p'
8.1,'d','p'
8.64,'d','p'
8.82,'d','p'
6.74,'d','p'
6.15,'d','p'
9.84,'d','p'
7.47,'d','p'
5.7,'d','p'
9.79,'d','p'
7.83,'d','p'
10.93,'d','p'
6.2,'d','p'
8.12,'d','p'
7.85,'d','p'
8.45,'d','p'
6.6,'d','p'
8.97,'d','p'
6.54,'d','p'
8.97,'d','p'
7.91,'d','p'
7.84,'d','p'
7.8,'d','p'
7.05,'d','p'
7.06,'d','p'
6.99,'d','p'
8.88,'d','p'
9.45,'d','p'
8.89,'d','p'
6.44,'d','p'
8.69,'d','p'
6.6,'d','p'
8.01,'d','p'
8.1,'d','p'
7.5,'d','p'
7.72,'d','p'
6.71,'d','p'
7.32,'d','p'
7.25,'d','p'
6.91,'d','p'
8.59,'d','p'
6.18,'d','p'
8.72,'d','p'
9.81,'d','p'
8.52,'d','p'
5.77,'d','p'
9.36,'d','p'
7.97,'d','p'
7.99,'d','p'
7.08,'d','p'
9.63,'d','p'
7.51,'d','p'
11.12,'d','p'
11.14,'d','p'
7.6,'d','p'
8.95,'d','p'
8.34,'d','p'
7.21,'d','p'
11.03,'d','p'
8.32,'d','p'
7.01,'d','p'
7.79,'d','p'
6.65,'d','p'
7.99,'d','p'
6.74,'d','p'
10.18,'d','p'
8.25,'d','p'
10.09,'d','p'
7.62,'d','p'
7.21,'d','p'
8.07,'d','p'
6.3,'d','p'
11.09,'d','p'
6.81,'d','p'
7.68,'d','p'
8.68,'d','p'
6.77,'d','p'
10.7,'d','p'
7.76,'d','p'
8.5,'d','p'
7.5,'d','p'
6.66,'d','p'
7.41,'d','p'
8.14,'d','p'
9.1,'d','p'
9.18,'d','p'
8.9,'d','p'
5.61,'d','p'
9.8,'d','p'
6.31,'d','p'
8.4,'d','p'
6.88,'d','p'
6.95,'d','p'
9.74,'d','p'
10.1,'d','p'
9.13,'d','p'
9.6,'d','p'
9.34,'d','p'
9.05,'d','p'
9.31,'d','p'
9.41,'d','p'
5.33,'d','p'
8.11,'d','p'
8.11,'d','p'
8.78,'d','p'
6.77,'d','p'
7.12,'d','p'
7.62,'d','p'
9.26,'d','p'
7.36,'d','p'
8.89,'d','p'
7.75,'d','p'
10.36,'d','p'
5.08,'d','p'
7.34,'d','p'
9.5,'d','p'
9.5,'d','p'
7.81,'d','p'
8.17,'d','p'
9.46,'d','p'
8.81,'d','p'
8.32,'d','p'
10.29,'d','p'
7.41,'d','p'
8.95,'d','p'
10.55,'d','p'
8.34,'d','p'
8.27,'d','p'
7.98,'d','p'
10.94,'d','p'
8.52,'d','p'
7.95,'d','p'
5.13,'d','p'
7.42,'d','p'
9.49,'d','p'
6.19,'d','p'
7.56,'d','p'
7.32,'d','p'
8.33,'d','p'
10.1,'d','p'
7.1,'d','p'
7.92,'d','p'
8.47,'d','p'
4.87,'d','p'
6.56,'d','p'
7.64,'d','p'
8.76,'d','p'
8.11,'d','p'
8.04,'d','p'
7.12,'d','p'
9.44,'d','p'
8.38,'d','p'
7.8,'d','p'
6.36,'d','p'
8.83,'d','p'
7.5,'d','p'
8.54,'d','p'
5.41,'d','p'
7.91,'d','p'
7.93,'d','p'
11.46,'d','p'
7.21,'d','p'
9.34,'d','p'
8.56,'d','p'
9.14,'d','p'
10.2,'d','p'
7.52,'d','p'
8.64,'d','p'
7.21,'d','p'
6.73,'d','p'
8.78,'d','p'
10.51,'d','p'
9.11,'d','p'
6.91,'d','p'
8.56,'d','p'
7.85,'d','p'
8.15,'d','p'
9.43,'d','p'
8.27,'d','p'
9.92,'d','p'
7.7,'d','p'
10.56,'d','p'
8.68,'d','p'
9.08,'d','p'
6.69,'d','p'
10.2,'d','p'
8.21,'d','p'
9.88,'d','p'
8.63,'d','p'
5.85,'d','p'
7.48,'d','p'
6.78,'d','p'
6.51,'d','p'
10.68,'d','p'
8.28,'d','p'
9.52,'d','p'
9.73,'d','p'
7.67,'d','p'
7.93,'d','p'
8.29,'d','p'
8.13,'d','p'
7.39,'d','p'
5.52,'d','p'
8.09,'d','p'
9.99,'d','p'
7.65,'d','p'
10.47,'d','p'
7.73,'d','p'
10.66,'d','p'
6.94,'d','p'
11.1,'d','p'
9.84,'d','p'
7.53,'d','p'
7.81,'d','p'
8.41,'d','p'
7.48,'d','p'
7.46,'d','p'
6.23,'d','p'
7.25,'d','p'
10.58,'d','p'
6.81,'d','p'
6.38,'d','p'
7.85,'d','p'
5.76,'d','p'
8.34,'d','p'
8.43,'d','p'
9.05,'d','p'
5.76,'d','p'
8.71,'d','p'
8.63,'d','p'
8.31,'d','p'
7.22,'d','p'
7.96,'d','p'
6.94,'d','p'
7.19,'d','p'
9.09,'d','p'
5.97,'d','p'
7.8,'d','p'
8.09,'d','p'
6.56,'d','p'
7.49,'d','p'
5.83,'d','p'
9.05,'d','p'
6.92,'d','p'
10.07,'d','p'
7.36,'d','p'
9.71,'d','p'
8.54,'d','p'
4.92,'d','p'
8.37,'d','p'
9,'d','p'
5.82,'d','p'
9.42,'d','p'
10.22,'d','p'
7.63,'d','p'
8.13,'d','p'
6.6,'d','p'
4.36,'d','p'
5.07,'d','p'
3.81,'d','p'
3.83,'d','p'
3.86,'d','p'
3.24,'d','p'
3.92,'d','p'
3.99,'d','p'
3.14,'d','p'
3.71,'d','p'
5.12,'d','p'
3.63,'d','p'
3.19,'d','p'
3.13,'d','p'
2.94,'d','p'
3.63,'d','p'
4.07,'d','p'
4.35,'d','p'
3.27,'d','p'
3.25,'d','p'
4.48,'d','p'
4.04,'d','p'
4.75,'d','p'
4.05,'d','p'
4.4,'d','p'
4.15,'d','p'
4.34,'d','p'
3.92,'d','p'
3.97,'d','p'
3.22,'d','p'
4.48,'d','p'
3.84,'d','p'
4.52,'d','p'
4.11,'d','p'
3.66,'d','p'
4.12,'d','p'
4.47,'d','p'
4.99,'d','p'
4.27,'d','p'
3.02,'d','p'
3.55,'d','p'
4.46,'d','p'
3.9,'d','p'
3.91,'d','p'
3.01,'d','p'
2.77,'d','p'
3.99,'d','p'
4.41,'d','p'
4.83,'d','p'
3.79,'d','p'
4.8,'d','p'
4.09,'d','p'
3.73,'d','p'
3.91,'d','p'
2.89,'d','p'
3.52,'d','p'
4.7,'d','p'
3.39,'d','p'
4.38,'d','p'
4.14,'d','p'
4.4,'d','p'
4.04,'d','p'
4.44,'d','p'
4.35,'d','p'
4.49,'d','p'
3.54,'d','p'
4.08,'d','p'
4.55,'d','p'
4.17,'d','p'
4.36,'d','p'
3.39,'d','p'
3.41,'d','p'
3.28,'d','p'
4.19,'d','p'
4.15,'d','p'
4.07,'d','p'
3.68,'d','p'
3,'d','p'
3.55,'d','p'
5.21,'d','p'
4.29,'d','p'
5.13,'d','p'
3.21,'d','p'
3.58,'d','p'
3.83,'d','p'
3.92,'d','p'
3.99,'d','p'
3.69,'d','p'
4.24,'d','p'
4.36,'d','p'
3.77,'d','p'
3.97,'d','p'
4.76,'d','p'
4.38,'d','p'
3.79,'d','p'
3.29,'d','p'
5.28,'d','p'
3.27,'d','p'
4.55,'d','p'
4.5,'d','p'
4.19,'d','p'
3.49,'d','p'
4.31,'d','p'
4,'d','p'
4.6,'d','p'
4.59,'d','p'
4.91,'d','p'
4.39,'d','p'
3.27,'d','p'
4.63,'d','p'
4.98,'d','p'
5.08,'d','p'
4.73,'d','p'
4.56,'d','p'
5.2,'d','p'
3.23,'d','p'
4.58,'d','p'
4.09,'d','p'
3.92,'d','p'
4.99,'d','p'
4.2,'d','p'
3.59,'d','p'
4.22,'d','p'
4.74,'d','p'
2.73,'d','p'
3.84,'d','p'
3.45,'d','p'
4.15,'d','p'
4.29,'d','p'
5.12,'d','p'
3.43,'d','p'
2.52,'d','p'
3.78,'d','p'
3.32,'d','p'
5.34,'d','p'
3.77,'d','p'
3.26,'d','p'
4.01,'d','p'
4.69,'d','p'
4.37,'d','p'
3.89,'d','p'
4.97,'d','p'
3.48,'d','p'
4.07,'d','p'
4.16,'d','p'
3.53,'d','p'
2.93,'d','p'
4.02,'d','p'
3.73,'d','p'
4.5,'d','p'
4.09,'d','p'
5.12,'d','p'
4.72,'d','p'
4.17,'d','p'
3.07,'d','p'
4.89,'d','p'
4.18,'d','p'
2.86,'d','p'
4.46,'d','p'
4.09,'d','p'
3.11,'d','p'
5.29,'d','p'
3.96,'d','p'
4.27,'d','p'
3.25,'d','p'
4.54,'d','p'
3.26,'d','p'
4.02,'d','p'
3.65,'d','p'
2.96,'d','p'
5.37,'d','p'
4.05,'d','p'
5.48,'d','p'
4.41,'d','p'
4.34,'d','p'
5.37,'d','p'
4.23,'d','p'
5.21,'d','p'
3.99,'d','p'
3.56,'d','p'
3.92,'d','p'
3.78,'d','p'
4.54,'d','p'
3.9,'d','p'
3.77,'d','p'
4.49,'d','p'
4.55,'d','p'
3.91,'d','p'
3.79,'d','p'
4.61,'d','p'
4.62,'d','p'
4.38,'d','p'
4.62,'d','p'
4.2,'d','p'
4,'d','p'
3.79,'d','p'
3.79,'d','p'
4.59,'d','p'
4.25,'d','p'
3.85,'d','p'
4.75,'d','p'
4.49,'d','p'
4.49,'d','p'
3.87,'d','p'
3.58,'d','p'
4.94,'d','p'
3.92,'d','p'
4.04,'d','p'
3.13,'d','p'
3.02,'d','p'
2.88,'d','p'
5.49,'d','p'
3.31,'d','p'
2.9,'d','p'
4.34,'d','p'
5.55,'d','p'
3.56,'d','p'
3.84,'d','p'
3.55,'d','p'
4.46,'d','p'
3.6,'d','p'
5.05,'d','p'
3.67,'d','p'
3.1,'d','p'
4.96,'d','p'
3.49,'d','p'
5.07,'d','p'
5.58,'d','p'
3.8,'d','p'
4.15,'d','p'
3.83,'d','p'
5.05,'d','p'
3.85,'d','p'
3.36,'d','p'
4.53,'d','p'
4.69,'d','p'
5.06,'d','p'
5.74,'d','p'
4.43,'d','p'
3.25,'d','p'
4.1,'d','p'
4.52,'d','p'
4.46,'d','p'
4.63,'d','p'
4.21,'d','p'
3.48,'d','p'
3.17,'d','p'
4.61,'d','p'
3.62,'d','p'
4.16,'d','p'
4.64,'d','p'
3.56,'d','p'
4.56,'d','p'
4.73,'d','p'
4.09,'d','p'
4.63,'d','p'
4.51,'d','p'
3.34,'d','p'
3.48,'d','p'
4.7,'d','p'
5.06,'d','p'
4.77,'d','p'
4,'d','p'
3.02,'d','p'
4.05,'d','p'
4.05,'d','p'
3.88,'d','p'
4.69,'d','p'
3.69,'d','p'
3.54,'d','p'
4.32,'d','p'
4.87,'d','p'
3.82,'d','p'
3.9,'d','p'
4.47,'d','p'
2.41,'d','p'
3.89,'d','p'
4.41,'d','p'
5.79,'d','p'
3.94,'d','p'
4.62,'d','p'
3.78,'d','p'
3.67,'d','p'
3.84,'d','p'
4.14,'d','p'
5.47,'d','p'
3.9,'d','p'
4.59,'d','p'
2.91,'d','p'
4.43,'d','p'
4.19,'d','p'
4.27,'d','p'
4.71,'d','p'
3.98,'d','p'
4.04,'d','p'
4.19,'d','p'
4.43,'d','p'
3.85,'d','p'
3.81,'d','p'
4,'d','p'
4.44,'d','p'
3.12,'d','p'
4.42,'d','p'
3.13,'d','p'
4.77,'d','p'
4.11,'d','p'
4.51,'d','p'
4.36,'d','p'
3.58,'d','p'
4.67,'d','p'
3.36,'d','p'
4.1,'d','p'
3.84,'d','p'
5.39,'d','p'
4.3,'d','p'
3.56,'d','p'
3.8,'d','p'
4.06,'d','p'
4.76,'d','p'
3.52,'d','p'
4.34,'d','p'
4.11,'d','p'
4.04,'d','p'
4.7,'d','p'
4.64,'d','p'
4.19,'d','p'
5.26,'d','p'
3.95,'d','p'
3.5,'d','p'
4.29,'d','p'
4.47,'d','p'
4.16,'d','p'
3.58,'d','p'
4.28,'d','p'
4.62,'d','p'
3.28,'d','p'
4.63,'d','p'
3.33,'d','p'
3.92,'d','p'
3.54,'d','p'
4.24,'d','p'
3.71,'d','p'
3.12,'d','p'
3.59,'d','p'
2.85,'d','p'
3.23,'d','p'
2.99,'d','p'
4.74,'d','p'
3.29,'d','p'
3.45,'d','p'
2.94,'d','p'
3.51,'d','p'
3.04,'d','p'
5.46,'d','e'
6.42,'d','e'
5.53,'d','e'
6.47,'d','e'
5.24,'d','e'
4.98,'d','e'
6.32,'d','e'
6.45,'d','e'
4.29,'d','e'
4.86,'d','e'
5.09,'d','e'
4.2,'d','e'
5.36,'d','e'
5.04,'d','e'
6.69,'d','e'
5.77,'d','e'
5.77,'d','e'
7.01,'d','e'
6.27,'d','e'
4.99,'d','e'
5.5,'d','e'
6.74,'d','e'
5.58,'d','e'
5.45,'d','e'
4.36,'d','e'
5.09,'d','e'
5.02,'d','e'
5.01,'d','e'
5.95,'d','e'
5.4,'d','e'
5.35,'d','e'
5.42,'d','e'
5.78,'d','e'
5.19,'d','e'
5.74,'d','e'
4.11,'d','e'
6.15,'d','e'
5.57,'d','e'
5.17,'d','e'
4.89,'d','e'
5.69,'d','e'
5.92,'d','e'
5.76,'d','e'
5.92,'d','e'
4.52,'d','e'
6.31,'d','e'
4.97,'d','e'
5.65,'d','e'
7.21,'d','e'
5.65,'d','e'
5.43,'d','e'
5.41,'d','e'
4.03,'d','e'
5.92,'d','e'
6.88,'d','e'
3.99,'d','e'
5.83,'d','e'
5.15,'d','e'
6.1,'d','e'
6.38,'d','e'
6.58,'d','e'
5,'d','e'
6.07,'d','e'
3.64,'d','e'
5.83,'d','e'
5.67,'d','e'
6.58,'d','e'
6.07,'d','e'
4.87,'d','e'
4.61,'d','e'
4.9,'d','e'
6.23,'d','e'
5.74,'d','e'
3.82,'d','e'
5.63,'d','e'
5.2,'d','e'
6.01,'d','e'
5.68,'d','e'
5.58,'d','e'
5.35,'d','e'
6.96,'d','e'
4.39,'d','e'
5.06,'d','e'
5.51,'d','e'
5.14,'d','e'
6.42,'d','e'
5.71,'d','e'
5.66,'d','e'
4.39,'d','e'
7.28,'d','e'
5.52,'d','e'
6.34,'d','e'
5.11,'d','e'
5.56,'d','e'
5.87,'d','e'
5.08,'d','e'
6.26,'d','e'
4.65,'d','e'
4.9,'d','e'
4.14,'d','e'
5.75,'d','e'
5.42,'d','e'
5.76,'d','e'
4.13,'d','e'
5.61,'d','e'
5,'d','e'
6.31,'d','e'
6.45,'d','e'
5.51,'d','e'
4.97,'d','e'
6,'d','e'
3.8,'d','e'
4.15,'d','e'
6.48,'d','e'
5.82,'d','e'
4.11,'d','e'
6.31,'d','e'
4.71,'d','e'
4.55,'d','e'
4.56,'d','e'
4.88,'d','e'
6.92,'d','e'
5.96,'d','e'
5.44,'d','e'
5.54,'d','e'
5.85,'d','e'
4.94,'d','e'
4.18,'d','e'
4.84,'d','e'
5.16,'d','e'
4.74,'d','e'
5.47,'d','e'
7.32,'d','e'
6.69,'d','e'
5.91,'d','e'
5.79,'d','e'
4.8,'d','e'
7,'d','e'
5.78,'d','e'
6.32,'d','e'
4.42,'d','e'
5.71,'d','e'
5.01,'d','e'
5.56,'d','e'
4.37,'d','e'
4.9,'d','e'
4.99,'d','e'
5.37,'d','e'
3.7,'d','e'
5.42,'d','e'
6.44,'d','e'
4.64,'d','e'
4.71,'d','e'
5.47,'d','e'
3.24,'d','e'
5.41,'d','e'
4.58,'d','e'
4.78,'d','e'
5.04,'d','e'
4.56,'d','e'
6.07,'d','e'
5.24,'d','e'
4.53,'d','e'
6.75,'d','e'
4.76,'d','e'
6.14,'d','e'
5.84,'d','e'
6.52,'d','e'
4.86,'d','e'
7.74,'d','e'
6.32,'d','e'
5.15,'d','e'
5.03,'d','e'
5.43,'d','e'
3.62,'d','e'
4.91,'d','e'
6.62,'d','e'
4.74,'d','e'
4.72,'d','e'
4.12,'d','e'
5.9,'d','e'
5.66,'d','e'
4.82,'d','e'
5.45,'d','e'
5.34,'d','e'
5.31,'d','e'
4.36,'d','e'
5.5,'d','e'
6.59,'d','e'
5.86,'d','e'
5.18,'d','e'
5.96,'d','e'
5.84,'d','e'
5.95,'d','e'
5.77,'d','e'
4.44,'d','e'
5.64,'d','e'
4.86,'d','e'
5.7,'d','e'
6.65,'d','e'
5.16,'d','e'
5.32,'d','e'
5.35,'d','e'
5.3,'d','e'
5.14,'d','e'
5.08,'d','e'
6.09,'d','e'
6,'d','e'
5.05,'d','e'
6.26,'d','e'
4.72,'d','e'
5.6,'d','e'
5.59,'d','e'
5.71,'d','e'
6.67,'d','e'
5.69,'d','e'
4.61,'d','e'
4.29,'d','e'
6.81,'d','e'
5.42,'d','e'
4.09,'d','e'
5.32,'d','e'
5.36,'d','e'
3.66,'d','e'
5.89,'d','e'
5.16,'d','e'
5.05,'d','e'
6.62,'d','e'
4.87,'d','e'
5.1,'d','e'
4.91,'d','e'
6.1,'d','e'
6.28,'d','e'
5.57,'d','e'
4.98,'d','e'
5.75,'d','e'
5.89,'d','e'
5.24,'d','e'
6.05,'d','e'
7.01,'d','e'
6.55,'d','e'
5.94,'d','e'
4.55,'d','e'
5.12,'d','e'
5.47,'d','e'
5.27,'d','e'
6.43,'d','e'
6.51,'d','e'
5.47,'d','e'
6.73,'d','e'
5.79,'d','e'
4.93,'d','e'
6.24,'d','e'
5.04,'d','e'
5.22,'d','e'
6.56,'d','e'
5.91,'d','e'
5.14,'d','e'
5.55,'d','e'
5.8,'d','e'
4.98,'d','e'
5.08,'d','e'
4.76,'d','e'
6.86,'d','e'
4.55,'d','e'
6.27,'d','e'
5.45,'d','e'
5.54,'d','e'
5.25,'d','e'
5.51,'d','e'
4.32,'d','e'
5.12,'d','e'
5.14,'d','e'
4.75,'d','e'
6.86,'d','e'
6.36,'d','e'
5.43,'d','e'
5.14,'d','e'
4.84,'d','e'
4.52,'d','e'
5.44,'d','e'
4.12,'d','e'
4.7,'d','e'
4.4,'d','e'
5.05,'d','e'
3.85,'d','e'
6,'d','e'
5.53,'d','e'
6.2,'d','e'
6.16,'d','e'
6.04,'d','e'
4.38,'d','e'
5.97,'d','e'
6.03,'d','e'
6.37,'d','e'
4.06,'d','e'
5.57,'d','e'
6.19,'d','e'
4.86,'d','e'
4.18,'d','e'
4.48,'d','e'
6.18,'d','e'
6.68,'d','e'
5.43,'d','e'
5.26,'d','e'
5.93,'d','e'
6.56,'d','e'
5.06,'d','e'
5.46,'d','e'
6.34,'d','e'
4.69,'d','e'
5.01,'d','e'
4.19,'d','e'
4.67,'d','e'
5.83,'d','e'
4.57,'d','e'
4.01,'d','e'
4.81,'d','e'
5.9,'d','e'
5.87,'d','e'
3.34,'d','e'
4.68,'d','e'
6.93,'d','e'
6.38,'d','e'
5.26,'d','e'
5.68,'d','e'
6.38,'d','e'
6.93,'d','e'
5.13,'d','e'
6.32,'d','e'
4.83,'d','e'
6.27,'d','e'
4.42,'d','e'
5.3,'d','e'
5.39,'d','e'
4.16,'d','e'
3.93,'d','e'
6.14,'d','e'
6.01,'d','e'
6.6,'d','e'
5.95,'d','e'
5.11,'d','e'
6.87,'d','e'
5.09,'d','e'
5.86,'d','e'
6.21,'d','e'
5.55,'d','e'
5.4,'d','e'
5.62,'d','e'
5.71,'d','e'
4.48,'d','e'
5.85,'d','e'
4.54,'d','e'
5,'d','p'
4.56,'d','p'
4.55,'d','p'
2.92,'d','p'
3.78,'d','p'
5.36,'d','p'
3.98,'d','p'
3.18,'d','p'
3.4,'d','p'
4.74,'d','p'
3.82,'d','p'
2.7,'d','p'
4.29,'d','p'
5.08,'d','p'
4.93,'d','p'
3.82,'d','p'
3.26,'d','p'
2.9,'d','p'
3.24,'d','p'
4.16,'d','p'
4.25,'d','p'
4.28,'d','p'
4.61,'d','p'
4.68,'d','p'
4.58,'d','p'
4.5,'d','p'
3.7,'d','p'
4.03,'d','p'
4.02,'d','p'
4.49,'d','p'
3.92,'d','p'
3.69,'d','p'
4.37,'d','p'
4.28,'d','p'
3.75,'d','p'
3.51,'d','p'
4.59,'d','p'
3.54,'d','p'
2.32,'d','p'
4.05,'d','p'
3.92,'d','p'
4.27,'d','p'
4.5,'d','p'
3.38,'d','p'
3.2,'d','p'
4.63,'d','p'
4.17,'d','p'
4.02,'d','p'
3.53,'d','p'
3.31,'d','p'
3.65,'d','p'
3.81,'d','p'
3.56,'d','p'
3.7,'d','p'
3.55,'d','p'
4.45,'d','p'
3.71,'d','p'
3.77,'d','p'
3.86,'d','p'
2.97,'d','p'
3.92,'d','p'
3.69,'d','p'
3.39,'d','p'
4.04,'d','p'
4.53,'d','p'
5.13,'d','p'
4.05,'d','p'
3.33,'d','p'
4.51,'d','p'
4.46,'d','p'
4.69,'d','p'
3.46,'d','p'
4.55,'d','p'
4.88,'d','p'
3.56,'d','p'
3.26,'d','p'
3.81,'d','p'
3.99,'d','p'
3.7,'d','p'
4.77,'d','p'
4.08,'d','p'
3.32,'d','p'
4.12,'d','p'
3.15,'d','p'
4.43,'d','p'
4.24,'d','p'
4.01,'d','p'
3.47,'d','p'
2.95,'d','p'
5.88,'d','p'
4.35,'d','p'
3.84,'d','p'
3.8,'d','p'
3.99,'d','p'
3.83,'d','p'
3.63,'d','p'
4.2,'d','p'
4.35,'d','p'
3.35,'d','p'
3.12,'d','p'
4.31,'d','p'
3.58,'d','p'
3.5,'d','p'
4.55,'d','p'
3.93,'d','p'
4.47,'d','p'
3.15,'d','p'
5.2,'d','p'
5.28,'d','p'
4.81,'d','p'
5.05,'d','p'
4.24,'d','p'
5.59,'d','p'
3.04,'d','p'
5.08,'d','p'
4.61,'d','p'
3.48,'d','p'
3.28,'d','p'
4.45,'d','p'
3.5,'d','p'
4.09,'d','p'
4.29,'d','p'
4.01,'d','p'
4.62,'d','p'
2.95,'d','p'
3.4,'d','p'
3.91,'d','p'
4.22,'d','p'
4.38,'d','p'
4.02,'d','p'
3.83,'d','p'
3.95,'d','p'
4.45,'d','p'
3.43,'d','p'
4.39,'d','p'
3.97,'d','p'
4.72,'d','p'
3.95,'d','p'
4.15,'d','p'
4.98,'d','p'
3.5,'d','p'
3.65,'d','p'
4.68,'d','p'
3.2,'d','p'
5.18,'d','p'
3.99,'d','p'
3.24,'d','p'
3.65,'d','p'
5.01,'d','p'
3.9,'d','p'
4.01,'d','p'
5.21,'d','p'
2.67,'d','p'
3.51,'d','p'
3.84,'d','p'
5.25,'d','p'
4.07,'d','p'
3.44,'d','p'
3.73,'d','p'
3.29,'d','p'
4.16,'d','p'
4.63,'d','p'
3.52,'d','p'
4.27,'d','p'
2.92,'d','p'
5.02,'d','p'
4.1,'d','p'
3.16,'d','p'
4.53,'d','p'
4.18,'d','p'
3.6,'d','p'
2.92,'d','p'
2.75,'d','p'
4.89,'d','p'
3.07,'d','p'
4.69,'d','p'
4.31,'d','p'
3.72,'d','p'
3.67,'d','p'
4.13,'d','p'
5.25,'d','p'
4.24,'d','p'
4.99,'d','p'
4.69,'d','p'
2.9,'d','p'
4.06,'d','p'
3.91,'d','p'
3.54,'d','p'
3.33,'d','p'
3.37,'d','p'
4.56,'d','p'
4.07,'d','p'
4.53,'d','p'
4.1,'d','p'
3.62,'d','p'
3.65,'d','p'
3.7,'d','p'
4.02,'d','p'
3.85,'d','p'
4.88,'d','p'
4.04,'d','p'
4.54,'d','p'
2.62,'d','p'
3.99,'d','p'
4.26,'d','p'
3.98,'d','p'
4.51,'d','p'
3.38,'d','p'
4.18,'d','p'
4.89,'d','p'
4.42,'d','p'
3.71,'d','p'
5.02,'d','p'
4.07,'d','p'
4.66,'d','p'
4.28,'d','p'
4.16,'d','p'
5,'d','p'
3.18,'d','p'
4.31,'d','p'
3.99,'d','p'
4.46,'d','p'
4.33,'d','p'
3.72,'d','p'
2.56,'d','p'
3.91,'d','p'
3.67,'d','p'
4.29,'d','p'
5.73,'d','p'
3.41,'d','p'
4.16,'d','p'
4.2,'d','p'
2.57,'d','p'
4.98,'d','p'
5.19,'d','p'
3.44,'d','p'
4.42,'d','p'
4.13,'d','p'
3.16,'d','p'
3.48,'d','p'
5.38,'d','p'
4.04,'d','p'
3.52,'d','p'
4.34,'d','p'
4.63,'d','p'
2.6,'d','p'
3.61,'d','p'
4.11,'d','p'
2.48,'d','p'
3.88,'d','p'
4.74,'d','p'
3.98,'d','p'
3.97,'d','p'
4.76,'d','p'
4.2,'d','p'
4.22,'d','p'
5.31,'d','p'
3.28,'d','p'
3.71,'d','p'
3.78,'d','p'
4.14,'d','p'
3.47,'d','p'
3.11,'d','p'
2.19,'d','p'
2.83,'d','p'
3.82,'d','p'
3.82,'d','p'
4.7,'d','p'
3.57,'d','p'
4.4,'d','p'
3.73,'d','p'
2.88,'d','p'
4.08,'d','p'
4.34,'d','p'
4.06,'d','p'
3.24,'d','p'
2.98,'d','p'
5.12,'d','p'
3.71,'d','p'
3.93,'d','p'
4.36,'d','p'
3.42,'d','p'
4.16,'d','p'
3.13,'d','p'
4.4,'d','p'
4.69,'d','p'
4.47,'d','p'
4.72,'d','p'
4.3,'d','p'
3.62,'d','p'
3.34,'d','p'
3.68,'d','p'
4.97,'d','p'
3.48,'d','p'
3.69,'d','p'
5.05,'d','p'
3.2,'d','p'
4.19,'d','p'
6.28,'d','p'
3.19,'d','p'
2.92,'d','p'
2.09,'d','p'
3.47,'d','p'
4.32,'d','p'
5.33,'d','p'
4.34,'d','p'
3.85,'d','p'
3.18,'d','p'
3.95,'d','p'
3.35,'d','p'
3.71,'d','p'
4.4,'d','p'
4.54,'d','p'
4.05,'d','p'
3.02,'d','p'
4.62,'d','p'
3.29,'d','p'
3.66,'d','p'
4.88,'d','p'
3.74,'d','p'
4.74,'d','p'
3.39,'d','p'
4.25,'d','p'
4.08,'d','p'
4.93,'d','p'
4.26,'d','p'
4.17,'d','p'
4.95,'d','p'
3.99,'d','p'
3.79,'d','p'
4.86,'d','p'
3.91,'d','p'
4.4,'d','p'
4.65,'d','p'
3.84,'d','p'
4.41,'d','p'
3.71,'d','p'
3.55,'d','p'
4.5,'d','p'
4.11,'d','p'
3.17,'d','p'
4.7,'d','p'
3.88,'d','p'
3.81,'d','p'
3.12,'d','p'
3.83,'d','p'
4.12,'d','p'
3.52,'d','p'
3.91,'d','p'
3.2,'d','p'
3.7,'d','p'
4.06,'d','p'
4.71,'d','p'
6.68,'d','p'
6.61,'d','p'
5.9,'d','p'
5.76,'d','p'
5.85,'d','p'
6.31,'d','p'
6.49,'d','p'
5.97,'d','p'
6.41,'d','p'
5.81,'d','p'
5.36,'d','p'
6.02,'d','p'
4.74,'d','p'
5.83,'d','p'
5.92,'d','p'
5.58,'d','p'
6.89,'d','p'
5.88,'d','p'
6.31,'d','p'
6.09,'d','p'
6.03,'d','p'
7.23,'d','p'
6.3,'d','p'
4.87,'d','p'
6.68,'d','p'
6.19,'d','p'
4.8,'d','p'
5.94,'d','p'
6.12,'d','p'
6.12,'d','p'
6.46,'d','p'
6.11,'d','p'
6.22,'d','p'
4.86,'d','p'
6.16,'d','p'
4.02,'d','p'
6.53,'d','p'
4.8,'d','p'
5.65,'d','p'
6.45,'d','p'
5.43,'d','p'
5.58,'d','p'
6.3,'d','p'
5.06,'d','p'
7.43,'d','p'
6.78,'d','p'
6.69,'d','p'
6.06,'d','p'
4.58,'d','p'
7.39,'d','p'
5.85,'d','p'
4.53,'d','p'
6.73,'d','p'
5.26,'d','p'
6.17,'d','p'
6.07,'d','p'
5.88,'d','p'
7.4,'d','p'
5.19,'d','p'
5.74,'d','p'
4.92,'d','p'
6.12,'d','p'
6.63,'d','p'
6.64,'d','p'
5.73,'d','p'
7.33,'d','p'
6.31,'d','p'
5.56,'d','p'
6.21,'d','p'
5.86,'d','p'
5.86,'d','p'
5.73,'d','p'
4.7,'d','p'
4.68,'d','p'
6.16,'d','p'
5.06,'d','p'
6.99,'d','p'
5.82,'d','p'
5.46,'d','p'
6.37,'d','p'
6.26,'d','p'
5.81,'d','p'
6.31,'d','p'
4.57,'d','p'
6.36,'d','p'
4.97,'d','p'
4.51,'d','p'
6.35,'d','p'
5.06,'d','p'
5.38,'d','p'
5.83,'d','p'
5.96,'d','p'
6.52,'d','p'
6.29,'d','p'
7.36,'d','p'
6.7,'d','p'
6.31,'d','p'
6.28,'d','p'
5.18,'d','p'
5.53,'d','p'
5.82,'d','p'
5.62,'d','p'
6.24,'d','p'
6.68,'d','p'
6.37,'d','p'
7.04,'d','p'
6.44,'d','p'
7.13,'d','p'
5.88,'d','p'
5.49,'d','p'
6.56,'d','p'
6.45,'d','p'
5.77,'d','p'
4.8,'d','p'
6.17,'d','p'
6.01,'d','p'
6.34,'d','p'
5.79,'d','p'
6.47,'d','p'
6.68,'d','p'
5.67,'d','p'
6.29,'d','p'
4.76,'d','p'
6.68,'d','p'
5.43,'d','p'
5.13,'d','p'
6.55,'d','p'
6.28,'d','p'
6.64,'d','p'
5.59,'d','p'
6.41,'d','p'
5.23,'d','p'
7.19,'d','p'
3.61,'d','p'
6.52,'d','p'
6.16,'d','p'
6.29,'d','p'
6.52,'d','p'
6.17,'d','p'
5.95,'d','p'
5.59,'d','p'
5.63,'d','p'
7.55,'d','p'
7.24,'d','p'
5.19,'d','p'
6.28,'d','p'
4.94,'d','p'
6.22,'d','p'
6.39,'d','p'
6.19,'d','p'
5.24,'d','p'
5.73,'d','p'
5.5,'d','p'
6.29,'d','p'
6.33,'d','p'
5.94,'d','p'
6.43,'d','p'
5.98,'d','p'
5.72,'d','p'
6.34,'d','p'
6.51,'d','p'
6.18,'d','p'
7.76,'d','p'
5.36,'d','p'
6.23,'d','p'
5.75,'d','p'
6.3,'d','p'
7.05,'d','p'
6.32,'d','p'
5.42,'d','p'
6.63,'d','p'
5.94,'d','p'
6.32,'d','p'
6.09,'d','p'
6.16,'d','p'
6.41,'d','p'
5.66,'d','p'
6.84,'d','p'
5.22,'d','p'
6.39,'d','p'
4.92,'d','p'
5.9,'d','p'
4.69,'d','p'
6.84,'d','p'
7.25,'d','p'
6.63,'d','p'
7,'d','p'
5.64,'d','p'
6.11,'d','p'
6.69,'d','p'
6.37,'d','p'
5.17,'d','p'
7.06,'d','p'
6.08,'d','p'
5.76,'d','p'
5.7,'d','p'
5,'d','p'
6.06,'d','p'
4.4,'d','p'
6.35,'d','p'
5.16,'d','p'
5.99,'d','p'
6.19,'d','p'
5.52,'d','p'
6.37,'d','p'
6.64,'d','p'
4.58,'d','p'
6.67,'d','p'
5.4,'d','p'
5.66,'d','p'
5.87,'d','p'
6.46,'d','p'
5.85,'d','p'
5.38,'d','p'
5.67,'d','p'
6.49,'d','p'
6.41,'d','p'
6.84,'d','p'
6.66,'d','p'
5.64,'d','p'
5.62,'d','p'
6.37,'d','p'
5.53,'d','p'
5.95,'d','p'
7.28,'d','p'
6.74,'d','p'
4.42,'d','p'
5.52,'d','p'
6.67,'d','p'
5.37,'d','p'
5.88,'d','p'
6.07,'d','p'
5.76,'d','p'
6.8,'d','p'
6.19,'d','p'
6.17,'d','p'
5.23,'d','p'
6.51,'d','p'
7.28,'d','p'
6.57,'d','p'
6.28,'d','p'
5.33,'d','p'
5.9,'d','p'
5.81,'d','p'
5.81,'d','p'
5.99,'d','p'
5.91,'d','p'
5.44,'d','p'
6.08,'d','p'
7.25,'d','p'
6.19,'d','p'
6.04,'d','p'
4.55,'d','p'
5.64,'d','p'
6.45,'d','p'
6.81,'d','p'
6.95,'d','p'
6.9,'d','p'
6.7,'d','p'
5.83,'d','p'
5.17,'d','p'
7.05,'d','p'
5.14,'d','p'
5.54,'d','p'
6,'d','p'
7.2,'d','p'
5.91,'d','p'
5.24,'d','p'
5.67,'d','p'
6.72,'d','p'
5.79,'d','p'
5.44,'d','p'
4.97,'d','p'
6.09,'d','p'
5.77,'d','p'
6.81,'d','p'
6.35,'d','p'
6.35,'d','p'
7.16,'d','p'
5.85,'d','p'
6.11,'d','p'
5.05,'d','p'
7,'d','p'
6.48,'d','p'
6.59,'d','p'
6.46,'d','p'
6.02,'d','p'
6.96,'d','p'
5.88,'d','p'
6.01,'d','p'
5.23,'d','p'
5.83,'d','p'
5.16,'d','p'
6.32,'d','p'
5.54,'d','p'
6.35,'d','p'
6.87,'d','p'
7.28,'d','p'
6.27,'d','p'
6.73,'d','p'
6.93,'d','p'
5.54,'d','p'
6.2,'d','p'
5.58,'d','p'
6.11,'d','p'
5.43,'d','p'
6.32,'d','p'
5.91,'d','p'
5.41,'d','p'
6.61,'d','p'
5.89,'d','p'
4.82,'d','p'
4.69,'d','p'
5.56,'d','p'
6.34,'d','p'
5.33,'d','p'
4.11,'d','p'
6.58,'d','p'
6.22,'d','p'
6.28,'d','p'
6.53,'d','p'
5.66,'d','p'
5.16,'d','p'
5.46,'d','p'
6.6,'d','p'
5.82,'d','p'
6.46,'d','p'
6.74,'d','p'
4.92,'d','p'
5.51,'d','p'
6.2,'d','p'
7.18,'d','p'
4.82,'d','p'
6.86,'d','p'
5.78,'d','p'
6.07,'d','p'
6.12,'d','p'
6.39,'d','p'
5.96,'d','p'
5.95,'d','p'
5.87,'d','p'
6.24,'d','p'
5.8,'d','p'
5.54,'d','p'
6.25,'d','p'
5.97,'d','p'
5.37,'d','p'
5.93,'d','p'
6.09,'d','p'
5.89,'d','p'
5.98,'d','p'
6.06,'d','p'
5.79,'d','p'
4.4,'g','p'
3.38,'d','p'
3.09,'m','p'
4.61,'m','p'
3.21,'d','p'
2.85,'m','p'
4.1,'m','p'
3.52,'g','p'
3.88,'m','p'
3.85,'g','p'
3.84,'d','p'
4.69,'m','p'
4.5,'g','p'
4.43,'g','p'
4.13,'d','p'
2.65,'d','p'
4.08,'d','p'
3.16,'m','p'
4.59,'g','p'
3.6,'d','p'
4.45,'m','p'
4.4,'d','p'
4.94,'d','p'
4.62,'d','p'
4.53,'m','p'
3.09,'d','p'
2.56,'m','p'
4.09,'d','p'
3.64,'d','p'
4.54,'m','p'
3.69,'g','p'
3.74,'g','p'
2.82,'g','p'
4.49,'d','p'
4.73,'m','p'
4.72,'m','p'
4.47,'g','p'
3.36,'g','p'
2.99,'d','p'
3.26,'g','p'
4.5,'d','p'
4.55,'g','p'
3.3,'g','p'
4.27,'d','p'
4.83,'m','p'
4.99,'g','p'
3.28,'m','p'
4.71,'m','p'
3.26,'d','p'
4.08,'d','p'
2.86,'d','p'
3.22,'g','p'
4.4,'m','p'
4.29,'d','p'
3.09,'d','p'
4.52,'g','p'
3.53,'m','p'
4.07,'d','p'
5,'m','p'
3.91,'g','p'
3.8,'d','p'
4.56,'g','p'
4.54,'g','p'
4.3,'g','p'
4.23,'m','p'
3.9,'g','p'
3.84,'d','p'
4.1,'d','p'
2.88,'g','p'
4.97,'d','p'
3.78,'m','p'
4.16,'m','p'
3.59,'g','p'
4.66,'g','p'
3.54,'d','p'
3.81,'d','p'
4.03,'d','p'
4.9,'m','p'
4.25,'g','p'
4.52,'d','p'
4.27,'d','p'
4.2,'m','p'
4.25,'d','p'
4.07,'g','p'
4.03,'m','p'
4.04,'m','p'
3.65,'d','p'
4.75,'d','p'
4.62,'g','p'
3.56,'d','p'
3.68,'m','p'
4.23,'d','p'
4.53,'d','p'
3.57,'d','p'
4.04,'m','p'
4.48,'d','p'
3.02,'d','p'
2.52,'d','p'
3.53,'g','p'
2.99,'g','p'
3.26,'d','p'
3.85,'d','p'
3.66,'g','p'
2.77,'m','p'
3.13,'g','p'
4.27,'g','p'
4.14,'g','p'
3.63,'m','p'
2.85,'g','p'
3.57,'g','p'
4.35,'d','p'
3.23,'g','p'
3.87,'g','p'
3.72,'d','p'
4.66,'d','p'
4.95,'d','p'
4.86,'g','p'
4.69,'d','p'
3.72,'g','p'
2.88,'g','p'
4.17,'g','p'
4.3,'d','p'
4.23,'g','p'
3.27,'m','p'
4.53,'d','p'
3.28,'m','p'
3.15,'m','p'
2.49,'d','p'
4.47,'d','p'
4.08,'g','p'
3.06,'m','p'
3.78,'m','p'
2.88,'g','p'
4.35,'g','p'
4.72,'m','p'
4.01,'m','p'
5.12,'g','p'
4.87,'m','p'
2.78,'m','p'
3.31,'m','p'
4.38,'d','p'
3.71,'g','p'
3.26,'g','p'
4.64,'d','p'
4.14,'g','p'
3.05,'m','p'
3.43,'m','p'
4.14,'m','p'
3.67,'m','p'
2.2,'m','p'
4.69,'d','p'
3.2,'d','p'
4.81,'g','p'
3.82,'d','p'
5.13,'d','p'
4.94,'d','p'
3.36,'g','p'
4.4,'d','p'
4,'m','p'
4.23,'m','p'
3.24,'m','p'
3.67,'d','p'
3.5,'g','p'
4.24,'g','p'
4.11,'m','p'
4.63,'d','p'
4.19,'g','p'
3.74,'d','p'
2.86,'m','p'
4.23,'g','p'
2.08,'g','p'
2.57,'d','p'
4.44,'g','p'
4.51,'g','p'
4.38,'g','p'
3.57,'m','p'
2.62,'d','p'
4.77,'m','p'
4.61,'m','p'
3.21,'d','p'
2.73,'m','p'
3.15,'g','p'
4.06,'m','p'
3.77,'d','p'
4.29,'d','p'
3.65,'m','p'
4.38,'g','p'
4.16,'d','p'
4.07,'g','p'
3.39,'g','p'
3.96,'d','p'
4.6,'g','p'
4.34,'d','p'
5.04,'d','p'
4.5,'g','p'
4.35,'m','p'
3.11,'m','p'
4.9,'d','p'
3.45,'d','p'
4.72,'d','p'
4.05,'g','p'
4.2,'d','p'
5.57,'g','p'
5.24,'g','p'
3.98,'d','p'
2.77,'m','p'
4.14,'g','p'
4.79,'d','p'
4.94,'g','p'
3.69,'g','p'
4.33,'g','p'
2.92,'m','p'
3.68,'g','p'
4.06,'g','p'
3.5,'g','p'
4.61,'m','p'
3.35,'m','p'
2.99,'g','p'
4.23,'d','p'
4.54,'m','p'
3.92,'g','p'
4.5,'d','p'
4.57,'g','p'
4.53,'g','p'
3.65,'d','p'
4.29,'m','p'
3.47,'g','p'
2.75,'g','p'
3.81,'g','p'
4.29,'g','p'
3.86,'m','p'
4.27,'d','p'
4.39,'d','p'
4.65,'g','p'
3.52,'m','p'
3.82,'d','p'
3.31,'g','p'
5.31,'g','p'
4,'m','p'
4.6,'d','p'
3.15,'m','p'
4.44,'m','p'
3.61,'g','p'
4.53,'d','p'
3.41,'d','p'
4.56,'m','p'
4.08,'g','p'
4.51,'g','p'
3.86,'m','p'
4.49,'d','p'
4.92,'m','p'
3.92,'g','p'
4.73,'m','p'
4.41,'g','p'
4.79,'m','p'
3.85,'d','p'
3.2,'d','p'
5.65,'d','p'
3.27,'d','p'
4.1,'g','p'
3.97,'m','p'
3.99,'g','p'
3.07,'g','p'
5.09,'d','p'
6.03,'d','p'
3.36,'d','p'
4.03,'m','p'
5.23,'m','p'
3.8,'m','p'
4,'g','p'
2.98,'d','p'
4.61,'m','p'
3.4,'d','p'
3.21,'d','p'
3.85,'m','p'
4.47,'g','p'
3.62,'g','p'
3.05,'m','p'
3.31,'g','p'
4.44,'d','p'
4.68,'m','p'
3.2,'m','p'
2.88,'g','p'
4.45,'m','p'
3.31,'m','p'
4.3,'d','p'
4.88,'g','p'
4.94,'d','p'
3.92,'g','p'
4.82,'m','p'
4.57,'m','p'
3.47,'g','p'
3.91,'d','p'
4.25,'g','p'
5.03,'m','p'
3.55,'d','p'
3.79,'m','p'
4.07,'g','p'
3.68,'d','p'
3.75,'d','p'
3.65,'d','p'
3.85,'g','p'
4.35,'d','p'
3.52,'d','p'
3.76,'d','p'
4.14,'d','p'
5.06,'d','p'
5.02,'d','p'
4.36,'d','p'
4.13,'g','p'
4.05,'d','p'
3.23,'d','p'
3.94,'d','p'
3.41,'d','p'
3.72,'d','p'
4.24,'g','p'
5.35,'g','p'
3.55,'m','p'
4.85,'m','p'
3.91,'m','p'
4,'d','p'
4.36,'m','p'
3.17,'g','p'
3.35,'m','p'
4.55,'m','p'
4.45,'d','p'
4.89,'g','p'
3.34,'g','p'
2.64,'g','p'
4.47,'d','p'
4.37,'d','p'
3.83,'g','p'
4.68,'g','p'
3.97,'g','p'
3.3,'d','p'
3,'m','p'
5.34,'m','p'
4.06,'g','p'
4.51,'m','p'
3.7,'d','p'
4.03,'d','p'
4.16,'m','p'
3.32,'d','p'
4.51,'g','p'
4.94,'g','p'
4.51,'m','p'
3.72,'g','p'
3.16,'m','p'
3.58,'d','p'
4.4,'g','p'
3.46,'g','p'
4.64,'m','p'
4.73,'m','p'
2.19,'m','p'
2.15,'m','p'
1.65,'m','p'
1.94,'m','p'
2.28,'m','p'
1.93,'m','p'
2.13,'m','p'
1.72,'m','p'
2.5,'m','p'
2.08,'m','p'
2.4,'m','p'
2.09,'m','p'
1.93,'m','p'
2.09,'m','p'
1.77,'m','p'
2.34,'m','p'
2.4,'m','p'
2.33,'m','p'
2.3,'m','p'
2.35,'m','p'
2.19,'m','p'
2.16,'m','p'
1.66,'m','p'
1.54,'m','p'
2.18,'m','p'
1.98,'m','p'
2.16,'m','p'
1.67,'m','p'
1.97,'m','p'
1.74,'m','p'
2.53,'m','p'
1.5,'m','p'
2.29,'m','p'
2.6,'m','p'
2.23,'m','p'
1.58,'m','p'
1.74,'m','p'
1.73,'m','p'
2.13,'m','p'
2.03,'m','p'
2.14,'m','p'
2.57,'m','p'
2.25,'m','p'
1.8,'m','p'
1.84,'m','p'
1.85,'m','p'
1.8,'m','p'
2.03,'m','p'
1.48,'m','p'
2.34,'m','p'
1.93,'m','p'
2.71,'m','p'
1.9,'m','p'
2.47,'m','p'
2.46,'m','p'
1.88,'m','p'
2.28,'m','p'
1.95,'m','p'
2.05,'m','p'
2,'m','p'
1.91,'m','p'
1.55,'m','p'
1.6,'m','p'
2.02,'m','p'
2.3,'m','p'
2.05,'m','p'
2.08,'m','p'
1.57,'m','p'
1.82,'m','p'
1.8,'m','p'
2.83,'m','p'
2.16,'m','p'
1.75,'m','p'
2.66,'m','p'
2.68,'m','p'
2.65,'m','p'
2.69,'m','p'
1.58,'m','p'
1.75,'m','p'
2.03,'m','p'
2.16,'m','p'
2.36,'m','p'
2.24,'m','p'
2.43,'m','p'
1.68,'m','p'
1.79,'m','p'
2.02,'m','p'
2.11,'m','p'
1.3,'m','p'
1.33,'m','p'
2.13,'m','p'
2.38,'m','p'
2.24,'m','p'
2.44,'m','p'
1.88,'m','p'
1.95,'m','p'
2.12,'m','p'
2.02,'m','p'
2.2,'m','p'
2.21,'m','p'
2.41,'m','p'
2.3,'m','p'
1.74,'m','p'
2.35,'m','p'
2.11,'m','p'
1.75,'m','p'
1.13,'m','p'
1.92,'m','p'
2.12,'m','p'
1.74,'m','p'
1.33,'m','p'
2.02,'m','p'
1.72,'m','p'
2.22,'m','p'
2.03,'m','p'
2.27,'m','p'
1.6,'m','p'
2.37,'m','p'
2.29,'m','p'
2.1,'m','p'
2.25,'m','p'
2.16,'m','p'
1.89,'m','p'
2.52,'m','p'
2.54,'m','p'
1.53,'m','p'
2.04,'m','p'
1.95,'m','p'
1.82,'m','p'
2.58,'m','p'
2.93,'m','p'
2.05,'m','p'
2.38,'m','p'
1.6,'m','p'
2.22,'m','p'
1.79,'m','p'
1.54,'m','p'
2.28,'m','p'
2.16,'m','p'
2.57,'m','p'
2.26,'m','p'
1.76,'m','p'
2.22,'m','p'
1.46,'m','p'
1.66,'m','p'
2.41,'m','p'
1.72,'m','p'
2.01,'m','p'
2.11,'m','p'
2.22,'m','p'
2.39,'m','p'
2.31,'m','p'
2.2,'m','p'
2.22,'m','p'
1.86,'m','p'
2.03,'m','p'
2.39,'m','p'
2.32,'m','p'
2.03,'m','p'
1.99,'m','p'
2.02,'m','p'
2.04,'m','p'
1.93,'m','p'
1.71,'m','p'
1.55,'m','p'
1.86,'m','p'
1.51,'m','p'
2.12,'m','p'
2.15,'m','p'
1.99,'m','p'
2.28,'m','p'
2.01,'m','p'
1.86,'m','p'
2.31,'m','p'
2.33,'m','p'
2.36,'m','p'
1.66,'m','p'
1.78,'m','p'
1.45,'m','p'
1.66,'m','p'
2.5,'m','p'
2,'m','p'
1.81,'m','p'
1.66,'m','p'
1.93,'m','p'
1.89,'m','p'
2.71,'m','p'
2.19,'m','p'
2.13,'m','p'
2.03,'m','p'
2.05,'m','p'
1.78,'m','p'
1.75,'m','p'
1.61,'m','p'
2.19,'m','p'
1.94,'m','p'
2.51,'m','p'
2.27,'m','p'
1.64,'m','p'
2.06,'m','p'
1.55,'m','p'
1.54,'m','p'
1.95,'m','p'
1.59,'m','p'
1.82,'m','p'
1.88,'m','p'
1.64,'m','p'
2.18,'m','p'
1.93,'m','p'
1.83,'m','p'
1.86,'m','p'
1.76,'m','p'
1.5,'m','p'
2.38,'m','p'
2.21,'m','p'
2.4,'m','p'
1.62,'m','p'
2.14,'m','p'
2.07,'m','p'
2.21,'m','p'
2.31,'m','p'
2.08,'m','p'
1.81,'m','p'
2.04,'m','p'
2.32,'m','p'
1.84,'m','p'
1.84,'m','p'
1.9,'m','p'
2.45,'m','p'
1.6,'m','p'
1.68,'m','p'
1.92,'m','p'
1.28,'m','p'
2.17,'m','p'
1.84,'m','p'
2.28,'m','p'
2.25,'m','p'
2.46,'m','p'
2.45,'m','p'
2.04,'m','p'
1.84,'m','p'
1.89,'m','p'
1.89,'m','p'
1.55,'m','p'
2,'m','p'
2.15,'m','p'
2.53,'m','p'
2.13,'m','p'
2.2,'m','p'
1.74,'m','p'
2.37,'m','p'
2.22,'m','p'
2.39,'m','p'
2.37,'m','p'
1.53,'m','p'
1.9,'m','p'
2.37,'m','p'
1.61,'m','p'
1.91,'m','p'
2.68,'m','p'
2.15,'m','p'
1.88,'m','p'
2.19,'m','p'
2,'m','p'
1.8,'m','p'
2.37,'m','p'
2.41,'m','p'
2.22,'m','p'
1.58,'m','p'
2.2,'m','p'
1.55,'m','p'
2.08,'m','p'
2.01,'m','p'
1.69,'m','p'
2,'m','p'
2.03,'m','p'
2.56,'m','p'
2.42,'m','p'
1.91,'m','p'
2.03,'m','p'
1.42,'m','p'
2.53,'m','p'
2.08,'m','p'
1.89,'m','p'
1.99,'m','p'
2.2,'m','p'
1.98,'m','p'
2.14,'m','p'
2.05,'m','p'
1.69,'m','p'
1.65,'m','p'
1.96,'m','p'
1.83,'m','p'
1.82,'m','p'
1.79,'m','p'
1.53,'m','p'
2.11,'m','p'
1.98,'m','p'
2.07,'m','p'
2.1,'m','p'
2.46,'m','p'
2.26,'m','p'
1.99,'m','p'
2.08,'m','p'
2.1,'m','p'
1.79,'m','p'
1.91,'m','p'
1.98,'m','p'
2.38,'m','p'
1.69,'m','p'
2.02,'m','p'
1.7,'m','p'
1.76,'m','p'
2,'m','p'
2.05,'m','p'
1.99,'m','p'
1.86,'m','p'
2.19,'m','p'
1.97,'m','p'
1.64,'m','p'
1.67,'m','p'
1.85,'m','p'
1.36,'m','p'
1.97,'m','p'
2.32,'m','p'
1.97,'m','p'
2,'m','p'
2.18,'m','p'
1.51,'m','p'
2.39,'m','p'
1.64,'m','p'
1.89,'m','p'
2.09,'m','p'
2.14,'m','p'
2.13,'m','p'
2.31,'m','p'
2.62,'m','p'
1.95,'m','p'
2.4,'m','p'
2.14,'m','p'
1.84,'m','p'
1.64,'m','p'
1.74,'m','p'
1.44,'m','p'
2.1,'m','p'
1.96,'m','p'
2.91,'m','p'
2.5,'m','p'
2.5,'m','p'
1.75,'m','p'
2.41,'m','p'
1.79,'m','p'
1.76,'m','p'
0.92,'g','p'
1.04,'m','p'
0.89,'m','p'
1,'g','p'
1,'g','p'
1.24,'m','p'
0.78,'g','p'
1.1,'g','p'
0.81,'g','p'
1.02,'g','p'
1.14,'m','p'
1.04,'m','p'
1.2,'g','p'
0.74,'g','p'
0.94,'g','p'
1.03,'g','p'
0.85,'m','p'
0.97,'m','p'
0.94,'g','p'
0.98,'m','p'
0.99,'m','p'
0.83,'g','p'
1.18,'g','p'
1,'m','p'
0.95,'g','p'
0.92,'m','p'
0.91,'g','p'
0.89,'m','p'
1.07,'g','p'
1.13,'m','p'
0.86,'m','p'
0.91,'g','p'
0.81,'g','p'
1.09,'g','p'
1.03,'m','p'
1.07,'g','p'
1.45,'g','p'
0.84,'m','p'
0.83,'m','p'
1.29,'g','p'
0.96,'g','p'
0.89,'g','p'
1.09,'g','p'
0.96,'g','p'
0.94,'g','p'
0.83,'g','p'
1.08,'m','p'
1.12,'g','p'
0.95,'g','p'
1.07,'m','p'
1.01,'m','p'
0.92,'m','p'
0.81,'g','p'
1.03,'g','p'
0.97,'m','p'
0.89,'m','p'
1.18,'g','p'
0.94,'m','p'
0.96,'g','p'
1.14,'m','p'
0.75,'m','p'
0.9,'m','p'
1.2,'g','p'
1.19,'g','p'
0.78,'g','p'
1.19,'g','p'
1.15,'g','p'
0.6,'m','p'
0.86,'g','p'
1.15,'g','p'
1.05,'g','p'
0.79,'m','p'
0.73,'m','p'
0.9,'m','p'
1.01,'g','p'
1.17,'m','p'
1.25,'g','p'
0.98,'m','p'
0.79,'g','p'
0.83,'g','p'
1,'m','p'
1.05,'g','p'
1.17,'g','p'
1.14,'g','p'
1,'g','p'
1.11,'g','p'
1.09,'g','p'
0.82,'g','p'
1.11,'m','p'
1.33,'g','p'
1.12,'m','p'
0.99,'g','p'
1.14,'m','p'
1.13,'m','p'
1.01,'g','p'
0.76,'m','p'
0.99,'m','p'
0.94,'m','p'
0.89,'m','p'
1.12,'g','p'
0.9,'g','p'
0.82,'g','p'
0.87,'m','p'
0.93,'m','p'
1.19,'g','p'
0.79,'g','p'
1.08,'g','p'
1.2,'g','p'
0.78,'m','p'
1.26,'g','p'
0.73,'m','p'
0.91,'g','p'
0.91,'m','p'
0.79,'m','p'
0.99,'g','p'
0.73,'g','p'
0.93,'m','p'
1,'m','p'
0.84,'m','p'
1.1,'g','p'
0.97,'m','p'
0.71,'g','p'
1.02,'m','p'
0.72,'g','p'
0.85,'g','p'
0.93,'m','p'
0.92,'g','p'
0.94,'g','p'
1.16,'m','p'
0.69,'m','p'
0.8,'m','p'
0.94,'g','p'
0.93,'g','p'
1.14,'m','p'
0.94,'g','p'
0.93,'g','p'
0.96,'g','p'
1.18,'g','p'
0.82,'m','p'
1,'m','p'
1.04,'m','p'
0.98,'m','p'
0.92,'g','p'
0.8,'m','p'
0.71,'g','p'
0.65,'m','p'
1.24,'m','p'
0.8,'g','p'
0.93,'g','p'
1,'m','p'
0.91,'m','p'
1,'g','p'
0.86,'m','p'
0.98,'m','p'
1.14,'g','p'
1.3,'g','p'
1.07,'g','p'
1.02,'g','p'
0.76,'g','p'
1.23,'m','p'
1.47,'g','p'
0.94,'m','p'
1.21,'m','p'
1.03,'g','p'
0.72,'m','p'
1.08,'m','p'
1.31,'g','p'
1.17,'m','p'
1.1,'g','p'
0.98,'m','p'
1.01,'g','p'
1.07,'m','p'
1.07,'m','p'
1.23,'m','p'
1.2,'m','p'
0.99,'g','p'
1.1,'g','p'
1.21,'g','p'
1.01,'m','p'
0.94,'g','p'
1.09,'m','p'
1.02,'g','p'
1.25,'m','p'
1.03,'m','p'
0.89,'m','p'
0.91,'m','p'
0.84,'m','p'
0.89,'m','p'
0.84,'g','p'
1.02,'g','p'
0.84,'g','p'
0.89,'g','p'
0.95,'m','p'
1.23,'g','p'
0.91,'g','p'
1.14,'m','p'
0.81,'g','p'
0.85,'g','p'
0.92,'g','p'
1,'g','p'
0.94,'m','p'
1.18,'g','p'
1.04,'m','p'
1.39,'g','p'
0.8,'g','p'
1.09,'g','p'
1.07,'g','p'
0.74,'g','p'
0.86,'g','p'
1.1,'m','p'
1,'m','p'
0.91,'m','p'
0.92,'m','p'
0.87,'m','p'
1.16,'m','p'
1.17,'m','p'
1.08,'m','p'
0.97,'m','p'
0.62,'g','p'
1.11,'m','p'
1.14,'g','p'
0.82,'m','p'
0.89,'m','p'
1.02,'g','p'
0.89,'g','p'
0.97,'m','p'
1.17,'m','p'
1.09,'m','p'
0.9,'m','p'
1.07,'m','p'
0.93,'g','p'
1.24,'g','p'
0.76,'g','p'
0.96,'m','p'
0.84,'g','p'
0.87,'m','p'
1.19,'g','p'
0.61,'g','p'
0.7,'m','p'
1.05,'m','p'
0.92,'m','p'
1.09,'m','p'
1.15,'m','p'
0.83,'g','p'
0.88,'m','p'
0.97,'g','p'
0.96,'m','p'
0.76,'m','p'
1.12,'g','p'
1.07,'m','p'
1.1,'g','p'
1.15,'m','p'
0.7,'g','p'
1.08,'g','p'
1.12,'m','p'
0.99,'m','p'
1.02,'m','p'
0.99,'g','p'
1.06,'g','p'
0.99,'g','p'
0.64,'m','p'
0.93,'m','p'
1,'g','p'
1.24,'m','p'
0.8,'g','p'
1.26,'g','p'
1.11,'g','p'
1.09,'m','p'
1.04,'g','p'
1.24,'m','p'
1.2,'g','p'
1.13,'g','p'
1.07,'m','p'
1.05,'g','p'
0.47,'g','p'
0.92,'g','p'
0.58,'g','p'
1.03,'g','p'
0.89,'m','p'
0.87,'m','p'
0.67,'m','p'
0.75,'g','p'
0.85,'m','p'
1.1,'m','p'
1.33,'m','p'
0.61,'m','p'
1.05,'g','p'
0.95,'m','p'
1.21,'g','p'
1.32,'m','p'
1.21,'m','p'
1.02,'g','p'
0.98,'m','p'
1.02,'g','p'
0.98,'m','p'
1.06,'m','p'
1.19,'m','p'
0.82,'m','p'
0.67,'g','p'
0.69,'m','p'
1.21,'g','p'
0.86,'g','p'
1.18,'m','p'
1.01,'m','p'
0.85,'m','p'
1.17,'m','p'
0.96,'g','p'
0.93,'m','p'
1.1,'m','p'
1.02,'m','p'
0.89,'m','p'
0.98,'m','p'
0.96,'m','p'
0.7,'g','p'
1.1,'g','p'
0.84,'m','p'
1.19,'g','p'
0.92,'m','p'
0.86,'g','p'
0.99,'m','p'
0.94,'m','p'
1.22,'m','p'
1.33,'m','p'
0.89,'g','p'
1.09,'m','p'
1.01,'m','p'
1.13,'g','p'
1.05,'g','p'
1.32,'m','p'
0.98,'m','p'
0.97,'m','p'
1.25,'m','p'
1.05,'m','p'
0.75,'g','p'
0.98,'m','p'
0.93,'m','p'
1.66,'m','p'
0.97,'m','p'
0.99,'g','p'
1.26,'m','p'
1.13,'m','p'
1.07,'m','p'
1.03,'g','p'
1.21,'m','p'
0.98,'g','p'
1.22,'g','p'
1.26,'m','p'
0.67,'g','p'
0.86,'g','p'
0.96,'g','p'
0.84,'m','p'
1.17,'m','p'
1.08,'m','p'
9.23,'d','p'
8.08,'h','p'
8.59,'d','p'
9.38,'d','p'
10.41,'d','p'
10.62,'h','p'
9.92,'h','p'
8.96,'h','p'
7.84,'h','p'
9.02,'d','p'
10.21,'h','p'
9.05,'h','p'
9.52,'d','p'
8.44,'d','p'
9.34,'h','p'
10.55,'d','p'
8.62,'d','p'
8.82,'h','p'
9.04,'h','p'
8.5,'h','p'
8.93,'d','p'
7.53,'d','p'
8.98,'d','p'
9.77,'d','p'
7.8,'d','p'
8.36,'d','p'
10.28,'d','p'
8.17,'h','p'
10.27,'d','p'
10.53,'h','p'
9.09,'d','p'
7.11,'h','p'
10.01,'d','p'
10.4,'d','p'
7.68,'h','p'
8.37,'h','p'
8.59,'d','p'
8.66,'d','p'
7.55,'d','p'
10.1,'d','p'
9.44,'d','p'
9.91,'d','p'
7.58,'d','p'
10.28,'d','p'
8.31,'d','p'
9.64,'d','p'
9.11,'h','p'
8.47,'h','p'
10.51,'h','p'
8.02,'d','p'
7.83,'h','p'
9.63,'d','p'
8.96,'d','p'
7.47,'d','p'
8.74,'d','p'
7.23,'d','p'
7.85,'d','p'
9.31,'h','p'
8.41,'d','p'
11,'h','p'
8.92,'d','p'
9.97,'d','p'
8.09,'h','p'
7.32,'d','p'
9.34,'d','p'
9.82,'h','p'
6.07,'h','p'
8.69,'d','p'
9.62,'d','p'
7.02,'h','p'
9.47,'d','p'
8.48,'h','p'
6.89,'d','p'
10.09,'h','p'
10.04,'d','p'
9.65,'d','p'
7.58,'d','p'
8.53,'d','p'
9.99,'d','p'
8.43,'d','p'
9.46,'h','p'
8.58,'h','p'
8.54,'d','p'
9.86,'d','p'
8.77,'d','p'
9.22,'h','p'
8.31,'d','p'
8.38,'d','p'
10.05,'d','p'
9.66,'d','p'
8.79,'d','p'
9.44,'h','p'
8.28,'h','p'
8.53,'d','p'
10.03,'d','p'
8.28,'d','p'
9.56,'d','p'
9.17,'d','p'
9.25,'d','p'
9.16,'h','p'
9.42,'d','p'
8.79,'h','p'
7.54,'h','p'
11.06,'d','p'
8.85,'h','p'
10.19,'h','p'
8.92,'h','p'
8.86,'d','p'
9.63,'h','p'
9.48,'d','p'
8.11,'d','p'
9.03,'h','p'
10.4,'d','p'
9.14,'d','p'
10.2,'h','p'
9.24,'d','p'
9.17,'h','p'
9.64,'h','p'
9.68,'d','p'
10.31,'d','p'
10.59,'h','p'
8.78,'d','p'
9.52,'d','p'
8.74,'h','p'
8.73,'d','p'
7.55,'h','p'
8.27,'h','p'
8.83,'d','p'
10.81,'h','p'
7.48,'d','p'
9.01,'d','p'
6.69,'d','p'
9.55,'h','p'
9.34,'d','p'
7.46,'d','p'
10.51,'h','p'
8.45,'h','p'
8.46,'d','p'
9.34,'d','p'
8.5,'h','p'
8.88,'d','p'
9.11,'d','p'
9.19,'h','p'
9.68,'h','p'
10.15,'d','p'
8.83,'h','p'
6.94,'h','p'
9.4,'h','p'
9.39,'h','p'
8.92,'h','p'
8.96,'h','p'
10.15,'d','p'
6.12,'h','p'
9.69,'h','p'
9.23,'h','p'
8.74,'d','p'
9.27,'d','p'
11.27,'h','p'
8.91,'d','p'
10.28,'d','p'
9.35,'d','p'
8.13,'h','p'
7.06,'h','p'
8.02,'d','p'
8.29,'h','p'
9.1,'d','p'
9.63,'d','p'
8.67,'d','p'
9.91,'d','p'
10.15,'d','p'
8.19,'d','p'
7.88,'h','p'
9.52,'h','p'
8.28,'d','p'
7.79,'d','p'
8.77,'d','p'
10.34,'h','p'
9.27,'h','p'
8.86,'d','p'
8.97,'h','p'
8.85,'d','p'
9.06,'h','p'
9.52,'d','p'
10.16,'h','p'
8.05,'d','p'
7.77,'h','p'
11.29,'d','p'
8.69,'d','p'
8.46,'d','p'
8.76,'h','p'
8.16,'d','p'
7.85,'d','p'
9.39,'h','p'
9.39,'d','p'
9.6,'h','p'
9.17,'h','p'
10.01,'d','p'
10.58,'h','p'
9.45,'d','p'
9.2,'h','p'
9.07,'d','p'
8.73,'d','p'
10.12,'d','p'
8.71,'h','p'
9.5,'h','p'
10.06,'h','p'
9.7,'d','p'
9.21,'h','p'
9.33,'d','p'
9.74,'d','p'
9,'d','p'
9.57,'d','p'
9.54,'h','p'
8.6,'h','p'
8.1,'h','p'
8.11,'h','p'
9.7,'h','p'
9.63,'h','p'
9.53,'h','p'
10.64,'d','p'
8.82,'h','p'
9.18,'d','p'
8.98,'d','p'
9.04,'h','p'
7.51,'d','p'
9.21,'h','p'
7.96,'h','p'
9.29,'d','p'
10.65,'d','p'
7.92,'h','p'
8.45,'h','p'
7.55,'h','p'
9.28,'h','p'
9.94,'h','p'
10.33,'d','p'
9.86,'d','p'
7.76,'h','p'
7.22,'h','p'
9.11,'d','p'
7.2,'d','p'
9.19,'h','p'
8.9,'d','p'
7.79,'h','p'
12.94,'d','p'
7.59,'d','p'
8.41,'d','p'
9.17,'d','p'
8.96,'d','p'
7.59,'h','p'
6.76,'d','p'
9.39,'h','p'
9.21,'h','p'
9.38,'d','p'
10.36,'d','p'
8.27,'h','p'
10.15,'h','p'
8.15,'d','p'
9.07,'h','p'
8.12,'d','p'
9.73,'d','p'
9.86,'h','p'
9.06,'h','p'
8.69,'d','p'
7.91,'h','p'
7.45,'d','p'
10.35,'h','p'
8.04,'h','p'
8.13,'h','p'
10.03,'d','p'
7.31,'d','p'
9.47,'d','p'
9.34,'d','p'
9.39,'h','p'
9.74,'h','p'
7.88,'h','p'
9.66,'d','p'
8.95,'h','p'
9.49,'h','p'
8.08,'h','p'
7.66,'h','p'
9.91,'h','p'
9.22,'h','p'
8.05,'h','p'
10.12,'h','p'
9.27,'d','p'
10.33,'h','p'
8.65,'d','p'
8.92,'h','p'
7.22,'d','p'
8.03,'h','p'
10,'h','p'
9.47,'h','p'
9.66,'d','p'
7.07,'d','p'
8.21,'h','p'
6.74,'h','p'
8.83,'h','p'
8.67,'h','p'
9.23,'d','p'
9.13,'d','p'
8.94,'h','p'
9.22,'h','p'
8.64,'d','p'
7.19,'h','p'
7.16,'h','p'
8.34,'d','p'
9.78,'d','p'
7.77,'d','p'
7.86,'d','p'
9.07,'h','p'
6.74,'h','p'
8.87,'h','p'
9.17,'d','p'
8.06,'h','p'
9.74,'h','p'
9.08,'h','p'
9.87,'d','p'
9.63,'d','p'
9.68,'d','p'
9.17,'h','p'
8.73,'h','p'
8.72,'d','p'
10.21,'h','p'
9.22,'d','p'
10.11,'d','p'
8.48,'h','p'
8.13,'h','p'
10.75,'d','p'
8.28,'d','p'
11.13,'h','p'
8.59,'d','p'
8.69,'h','p'
9.32,'d','p'
10.28,'h','p'
8.73,'d','p'
8.74,'d','p'
10.51,'h','p'
8.43,'d','p'
8.62,'d','p'
9.34,'h','p'
8.32,'d','p'
8.95,'d','p'
8.77,'h','p'
8.61,'d','p'
9.64,'d','p'
6.51,'h','p'
9.57,'d','p'
9.78,'h','p'
8.37,'d','p'
10.71,'h','p'
7.22,'d','p'
9.12,'h','p'
8.92,'d','p'
9.68,'d','p'
7.45,'d','p'
8.93,'d','p'
9.26,'d','p'
7.13,'d','p'
9.34,'d','p'
9.17,'d','p'
9.05,'d','p'
8.82,'d','p'
7.72,'d','p'
7.25,'d','p'
6.95,'d','p'
9.46,'d','p'
11.4,'d','p'
8.37,'d','p'
8.08,'d','p'
7.52,'d','p'
7.48,'d','p'
8.26,'d','p'
6.08,'d','p'
7.69,'d','p'
8.62,'d','p'
6.23,'d','p'
8.77,'d','p'
8.58,'d','p'
7.85,'d','p'
6.97,'d','p'
9.08,'d','p'
7.52,'d','p'
6.45,'d','p'
8.44,'d','p'
8.06,'d','p'
6.31,'d','p'
8.91,'d','p'
9.1,'d','p'
8.56,'d','p'
9.49,'d','p'
8.57,'d','p'
8.36,'d','p'
5.71,'d','p'
8.56,'d','p'
9.79,'d','p'
10.51,'d','p'
8.06,'d','p'
9.83,'d','p'
8.78,'d','p'
8.03,'d','p'
8.87,'d','p'
5.88,'d','p'
8.9,'d','p'
7.4,'d','p'
8.65,'d','p'
6.55,'d','p'
9.07,'d','p'
9.05,'d','p'
8.84,'d','p'
8.6,'d','p'
9.2,'d','p'
7.8,'d','p'
8.87,'d','p'
9.91,'d','p'
8.43,'d','p'
6.41,'d','p'
9.14,'d','p'
8.41,'d','p'
7.42,'d','p'
8.78,'d','p'
8.33,'d','p'
9.86,'d','p'
9.81,'d','p'
8.13,'d','p'
7.15,'d','p'
9.29,'d','p'
10.04,'d','p'
6.24,'d','p'
7.09,'d','p'
6.96,'d','p'
8.08,'d','p'
9.52,'d','p'
9.05,'d','p'
5.81,'d','p'
7.55,'d','p'
6.69,'d','p'
9.3,'d','p'
8.69,'d','p'
9.3,'d','p'
8.82,'d','p'
8.28,'d','p'
9.04,'d','p'
9.42,'d','p'
11.87,'d','p'
7.74,'d','p'
9.92,'d','p'
8.9,'d','p'
8.87,'d','p'
10.29,'d','p'
9.52,'d','p'
6.96,'d','p'
7.64,'d','p'
8.47,'d','p'
8.65,'d','p'
8.56,'d','p'
9.12,'d','p'
9.28,'d','p'
9.83,'d','p'
7.12,'d','p'
8.49,'d','p'
8.97,'d','p'
9.3,'d','p'
7.52,'d','p'
9.27,'d','p'
7.31,'d','p'
7.96,'d','p'
8.59,'d','p'
7.05,'d','p'
7.68,'d','p'
6.89,'d','p'
8.55,'d','p'
7.36,'d','p'
7.82,'d','p'
9.19,'d','p'
10.54,'d','p'
8.75,'d','p'
8.48,'d','p'
9.22,'d','p'
7.3,'d','p'
8.95,'d','p'
8.62,'d','p'
8.55,'d','p'
8.3,'d','p'
7.11,'d','p'
9.29,'d','p'
8.55,'d','p'
8.95,'d','p'
9.59,'d','p'
9.61,'d','p'
7.65,'d','p'
8.91,'d','p'
7.6,'d','p'
8.67,'d','p'
8.84,'d','p'
6.83,'d','p'
9.6,'d','p'
8.65,'d','p'
6.73,'d','p'
8.39,'d','p'
5.61,'d','p'
5.84,'d','p'
8.97,'d','p'
8.66,'d','p'
8.14,'d','p'
9.57,'d','p'
8.09,'d','p'
7.66,'d','p'
6.75,'d','p'
8.53,'d','p'
8.16,'d','p'
6.58,'d','p'
6.12,'d','p'
8.32,'d','p'
9.13,'d','p'
5.91,'d','p'
10.73,'d','p'
7.23,'d','p'
9.4,'d','p'
9.63,'d','p'
6.71,'d','p'
7.25,'d','p'
7.85,'d','p'
9.9,'d','p'
9.64,'d','p'
10.12,'d','p'
8.52,'d','p'
8.81,'d','p'
8.53,'d','p'
9.15,'d','p'
6.36,'d','p'
8.92,'d','p'
8.91,'d','p'
8.33,'d','p'
8.54,'d','p'
8.68,'d','p'
9.74,'d','p'
7.77,'d','p'
8.69,'d','p'
7.99,'d','p'
8.5,'d','p'
9.13,'d','p'
10.4,'d','p'
7.75,'d','p'
8.47,'d','p'
5.74,'d','p'
6.88,'d','p'
8.7,'d','p'
10.96,'d','p'
8.87,'d','p'
9.22,'d','p'
7.41,'d','p'
10.32,'d','p'
8.99,'d','p'
10.25,'d','p'
9.67,'d','p'
8.34,'d','p'
8.39,'d','p'
8.81,'d','p'
7.5,'d','p'
6.7,'d','p'
6.92,'d','p'
8.31,'d','p'
7.86,'d','p'
9.25,'d','p'
9,'d','p'
7.34,'d','p'
9.18,'d','p'
9.26,'d','p'
8.23,'d','p'
7.54,'d','p'
7.8,'d','p'
7.69,'d','p'
6.32,'d','p'
7.5,'d','p'
8.72,'d','p'
9.47,'d','p'
7.22,'d','p'
6.27,'d','p'
8.45,'d','p'
9.6,'d','p'
6.97,'d','p'
6.42,'d','p'
8.59,'d','p'
8.74,'d','p'
10.54,'d','p'
6.33,'d','p'
5.57,'d','p'
8.46,'d','p'
8.85,'d','p'
10.38,'d','p'
8.67,'d','p'
8.16,'d','p'
8.5,'d','p'
6.93,'d','p'
6.69,'d','p'
7.33,'d','p'
7.8,'d','p'
7.77,'d','p'
7.5,'d','p'
9.67,'d','p'
6.42,'d','p'
9.57,'d','p'
8,'d','p'
8.78,'d','p'
8.34,'d','p'
8.22,'d','p'
9.85,'d','p'
8.48,'d','p'
7.47,'d','p'
7.75,'d','p'
10.17,'d','p'
7.75,'d','p'
10.16,'d','p'
9.67,'d','p'
8.27,'d','p'
7.35,'d','p'
8.76,'d','p'
9.61,'d','p'
8.89,'d','p'
9.92,'d','p'
6.09,'d','p'
12.36,'d','p'
6.99,'d','p'
8.01,'d','p'
9.01,'d','p'
9.7,'d','p'
6.95,'d','p'
9.97,'d','p'
10.09,'d','p'
6.12,'d','p'
9.62,'d','p'
8.35,'d','p'
9.8,'d','p'
7.87,'d','p'
9.12,'d','p'
9.52,'d','p'
7.27,'d','p'
9.12,'d','p'
7.44,'d','p'
8.73,'d','p'
8.44,'d','p'
8.2,'d','p'
5.96,'d','p'
8.67,'d','p'
9.96,'d','p'
10.65,'d','p'
7.43,'d','p'
7.86,'d','p'
8.26,'d','p'
9.64,'d','p'
9.95,'d','p'
7.69,'d','p'
6.78,'d','p'
7.8,'d','p'
8.43,'d','p'
8.93,'d','p'
9.48,'d','p'
7.13,'d','p'
11.69,'d','p'
7.23,'d','p'
8.72,'d','p'
10.22,'d','p'
7.75,'d','p'
8.92,'d','p'
8.46,'d','p'
9.06,'d','p'
8.55,'d','p'
11.01,'d','p'
9.55,'d','p'
8.78,'d','p'
8.23,'d','p'
8.13,'d','p'
8.71,'d','p'
8.17,'d','p'
7.61,'d','p'
9.57,'d','p'
9.7,'d','p'
7.65,'d','p'
9.27,'d','p'
10.25,'d','p'
8.88,'d','p'
8.5,'d','p'
7.65,'d','p'
7.37,'d','p'
9.26,'d','p'
9.01,'d','p'
7.64,'d','p'
7.55,'d','p'
9.68,'d','p'
7.89,'d','p'
9.38,'d','p'
7.79,'d','p'
7.39,'d','p'
7.03,'d','p'
8.37,'d','p'
7,'d','p'
8.28,'d','p'
9.82,'d','p'
9,'d','p'
7.88,'d','p'
8.41,'d','p'
7.54,'d','p'
7.89,'d','p'
9.62,'d','p'
10.81,'d','p'
9.99,'d','p'
3.16,'d','p'
3.92,'d','p'
3.52,'d','p'
3.45,'d','p'
2.61,'d','p'
3.81,'d','p'
3.01,'d','p'
2.28,'d','p'
3.86,'d','p'
3.48,'d','p'
2.98,'d','p'
3.6,'d','p'
4.16,'d','p'
3.94,'d','p'
3.63,'d','p'
2.91,'d','p'
3.89,'d','p'
3.25,'d','p'
3.51,'d','p'
3.99,'d','p'
3.27,'d','p'
3.84,'d','p'
3.9,'d','p'
3.57,'d','p'
4.26,'d','p'
3.46,'d','p'
3.38,'d','p'
2.99,'d','p'
3.4,'d','p'
3.43,'d','p'
4.44,'d','p'
3.58,'d','p'
2.94,'d','p'
3.47,'d','p'
3.68,'d','p'
3.11,'d','p'
2.6,'d','p'
3.92,'d','p'
4.02,'d','p'
4.09,'d','p'
4.45,'d','p'
3.78,'d','p'
3.06,'d','p'
2.52,'d','p'
3.37,'d','p'
3.1,'d','p'
3.29,'d','p'
3.89,'d','p'
4.58,'d','p'
3.55,'d','p'
2.91,'d','p'
3.31,'d','p'
3.1,'d','p'
3.5,'d','p'
2.79,'d','p'
3.06,'d','p'
3.44,'d','p'
3.02,'d','p'
2.08,'d','p'
3.32,'d','p'
3.21,'d','p'
4.41,'d','p'
3.42,'d','p'
3.5,'d','p'
3.36,'d','p'
3.38,'d','p'
3.22,'d','p'
3.87,'d','p'
3.49,'d','p'
3.72,'d','p'
3.29,'d','p'
2.91,'d','p'
3.51,'d','p'
3.11,'d','p'
3.49,'d','p'
3.67,'d','p'
3.87,'d','p'
3.88,'d','p'
3.13,'d','p'
3.08,'d','p'
3.87,'d','p'
3.29,'d','p'
3.46,'d','p'
2.53,'d','p'
3.37,'d','p'
3.5,'d','p'
3.65,'d','p'
4.21,'d','p'
2.5,'d','p'
2.73,'d','p'
3.35,'d','p'
2.6,'d','p'
3.53,'d','p'
3.84,'d','p'
2.33,'d','p'
3.41,'d','p'
3.46,'d','p'
3.8,'d','p'
3.31,'d','p'
3.43,'d','p'
4,'d','p'
2.78,'d','p'
2.28,'d','p'
4.06,'d','p'
3.38,'d','p'
3.82,'d','p'
2.99,'d','p'
3.74,'d','p'
3.18,'d','p'
3.9,'d','p'
3.68,'d','p'
3.7,'d','p'
3.95,'d','p'
3.67,'d','p'
2.45,'d','p'
2.98,'d','p'
3.44,'d','p'
2.89,'d','p'
4.04,'d','p'
4.23,'d','p'
3.81,'d','p'
3.98,'d','p'
4.2,'d','p'
3.09,'d','p'
4.3,'d','p'
3.45,'d','p'
3.27,'d','p'
3.89,'d','p'
4.16,'d','p'
4.11,'d','p'
3.52,'d','p'
3.83,'d','p'
2.93,'d','p'
3.27,'d','p'
4.38,'d','p'
3.14,'d','p'
3.24,'d','p'
2.97,'d','p'
3.59,'d','p'
4.38,'d','p'
3.35,'d','p'
2.78,'d','p'
3.17,'d','p'
3.15,'d','p'
4.02,'d','p'
3.26,'d','p'
3.03,'d','p'
3.28,'d','p'
4.03,'d','p'
2.92,'d','p'
3.01,'d','p'
3.78,'d','p'
2.77,'d','p'
3.63,'d','p'
3.61,'d','p'
3.83,'d','p'
4.06,'d','p'
3.28,'d','p'
3.12,'d','p'
3.08,'d','p'
3.54,'d','p'
3.51,'d','p'
4.63,'d','p'
4.22,'d','p'
4.58,'d','p'
3.66,'d','p'
4.01,'d','p'
3.41,'d','p'
2.95,'d','p'
3.85,'d','p'
3.24,'d','p'
3.61,'d','p'
3.3,'d','p'
4.39,'d','p'
2.82,'d','p'
3.45,'d','p'
3.9,'d','p'
4.07,'d','p'
4.05,'d','p'
3.02,'d','p'
3.34,'d','p'
3.04,'d','p'
3.29,'d','p'
3.64,'d','p'
3.36,'d','p'
2.79,'d','p'
4.5,'d','p'
3.27,'d','p'
4.45,'d','p'
2.9,'d','p'
3.05,'d','p'
3.58,'d','p'
4.52,'d','p'
2.86,'d','p'
3.01,'d','p'
3.55,'d','p'
2.89,'d','p'
3.41,'d','p'
4.14,'d','p'
3.45,'d','p'
3.21,'d','p'
3.68,'d','p'
3.95,'d','p'
3.14,'d','p'
3.62,'d','p'
2.91,'d','p'
3.15,'d','p'
3.15,'d','p'
3.71,'d','p'
3.36,'d','p'
3.81,'d','p'
3.55,'d','p'
4.1,'d','p'
3.02,'d','p'
3.47,'d','p'
3.64,'d','p'
3.39,'d','p'
4.57,'d','p'
4.38,'d','p'
3.21,'d','p'
4.06,'d','p'
3.45,'d','p'
3.64,'d','p'
3.8,'d','p'
3.77,'d','p'
3.49,'d','p'
2.06,'d','p'
3.95,'d','p'
3.51,'d','p'
3.45,'d','p'
2.55,'d','p'
3.42,'d','p'
3.07,'d','p'
3.86,'d','p'
3.41,'d','p'
3.04,'d','p'
3.46,'d','p'
3.91,'d','p'
4.13,'d','p'
3.99,'d','p'
2.11,'d','p'
3.73,'d','p'
3.3,'d','p'
4.34,'d','p'
3.22,'d','p'
3.79,'d','p'
2.99,'d','p'
2.36,'d','p'
3.1,'d','p'
3.24,'d','p'
2.92,'d','p'
3.01,'d','p'
3.01,'d','p'
2.11,'d','p'
3.05,'d','p'
4.23,'d','p'
3.31,'d','p'
3.52,'d','p'
3.39,'d','p'
3.87,'d','p'
3.24,'d','p'
3.84,'d','p'
4.11,'d','p'
3.54,'d','p'
3,'d','p'
3.53,'d','p'
2.87,'d','p'
3.31,'d','p'
4.27,'d','p'
2.98,'d','p'
3.34,'d','p'
3.42,'d','p'
3.14,'d','p'
3.62,'d','p'
3.52,'d','p'
3.66,'d','p'
2.15,'d','p'
3.46,'d','p'
2.79,'d','p'
3.12,'d','p'
3.19,'d','p'
3.32,'d','p'
3.89,'d','p'
3.17,'d','p'
2.61,'d','p'
3.66,'d','p'
3.9,'d','p'
3.38,'d','p'
3.74,'d','p'
3.39,'d','p'
4.04,'d','p'
3.16,'d','p'
3.75,'d','p'
3.54,'d','p'
3.03,'d','p'
2.83,'d','p'
2.75,'d','p'
3.52,'d','p'
3.64,'d','p'
3.6,'d','p'
2.49,'d','p'
3.22,'d','p'
4.66,'d','p'
3.1,'d','p'
3.08,'d','p'
3.43,'d','p'
3.65,'d','p'
4.05,'d','p'
3.1,'d','p'
3.04,'d','p'
4.46,'d','p'
3.63,'d','p'
3.93,'d','p'
3.75,'d','p'
3.7,'d','p'
3.52,'d','p'
2.97,'d','p'
3.14,'d','p'
3.45,'d','p'
3.73,'d','p'
3.18,'d','p'
3.35,'d','p'
3.27,'d','p'
3.74,'d','p'
3.83,'d','p'
3.64,'d','p'
3.91,'d','p'
3.63,'d','p'
4.04,'d','p'
4.58,'d','p'
3.81,'d','p'
2.87,'d','p'
3.68,'d','p'
3.62,'d','p'
3.68,'d','p'
3.4,'d','p'
3.62,'d','p'
3.5,'d','p'
3.04,'d','p'
3.36,'d','p'
3.36,'d','p'
3.47,'d','p'
2.45,'d','p'
3.04,'d','p'
3.97,'d','p'
3.53,'d','p'
3.04,'d','p'
3.25,'d','p'
3.23,'d','p'
2.18,'d','p'
3.75,'d','p'
3.15,'d','p'
3.71,'d','p'
4.23,'g','p'
4.77,'g','p'
3.99,'d','p'
6.48,'g','p'
5.71,'g','p'
4.68,'g','p'
6.14,'g','p'
5.21,'g','p'
5.59,'d','p'
5.35,'d','p'
4.47,'d','p'
5.28,'g','p'
6.32,'g','p'
6.06,'d','p'
5.11,'d','p'
5.87,'g','p'
3.96,'d','p'
4.8,'g','p'
5.08,'g','p'
4.33,'g','p'
5.92,'g','p'
5.95,'d','p'
3.94,'g','p'
6.49,'d','p'
5.01,'d','p'
6.55,'g','p'
4.71,'g','p'
7.16,'g','p'
6.16,'g','p'
4.3,'g','p'
5.79,'g','p'
4.87,'g','p'
3.68,'g','p'
6.54,'d','p'
5.34,'g','p'
5.4,'d','p'
5.12,'d','p'
5.81,'g','p'
6.72,'d','p'
5.67,'g','p'
5.73,'g','p'
5.9,'d','p'
5.36,'g','p'
6.55,'g','p'
3.27,'d','p'
5.6,'d','p'
4.6,'g','p'
4.23,'d','p'
5.3,'d','p'
5.61,'g','p'
5.24,'g','p'
5.6,'d','p'
5.82,'g','p'
6.35,'g','p'
5.69,'d','p'
4.69,'d','p'
6.63,'g','p'
4.03,'d','p'
6.74,'g','p'
6.12,'d','p'
4.14,'g','p'
4.35,'g','p'
5.03,'d','p'
4.9,'g','p'
5.38,'d','p'
5.86,'g','p'
5.21,'d','p'
5.05,'g','p'
5.7,'d','p'
4.33,'d','p'
7.2,'g','p'
5.15,'d','p'
5.62,'g','p'
4.82,'d','p'
6.32,'d','p'
4.82,'g','p'
4.83,'g','p'
4.93,'g','p'
6.83,'g','p'
5.39,'d','p'
6.16,'d','p'
5.38,'d','p'
5.98,'g','p'
7.21,'g','p'
4.72,'g','p'
5.88,'g','p'
6.08,'d','p'
5.64,'g','p'
5.96,'g','p'
5.56,'g','p'
5.66,'d','p'
5.74,'d','p'
4.68,'d','p'
5.57,'d','p'
4.93,'g','p'
5.18,'g','p'
6.23,'g','p'
5.9,'d','p'
5.84,'g','p'
3.88,'d','p'
5.17,'g','p'
6.26,'d','p'
5.42,'d','p'
4.1,'g','p'
6.12,'d','p'
4.1,'d','p'
5.79,'d','p'
6.66,'g','p'
6.02,'d','p'
3.5,'g','p'
4.33,'d','p'
6.36,'g','p'
5,'g','p'
5.64,'d','p'
5.59,'d','p'
4.8,'d','p'
5.15,'g','p'
5.5,'d','p'
6.11,'d','p'
3.91,'d','p'
5.73,'g','p'
5.15,'d','p'
6.14,'d','p'
4.03,'d','p'
5.92,'d','p'
3.82,'g','p'
5.41,'d','p'
6.76,'d','p'
7.34,'d','p'
4.87,'d','p'
5.16,'g','p'
6.04,'g','p'
5.87,'g','p'
5.59,'g','p'
6.62,'d','p'
5.31,'g','p'
6.33,'g','p'
6.27,'g','p'
4.64,'g','p'
5.52,'d','p'
4.95,'d','p'
3.45,'d','p'
5.89,'g','p'
4.6,'g','p'
6.2,'g','p'
4.49,'g','p'
4.92,'g','p'
6.6,'d','p'
4.1,'g','p'
4.21,'g','p'
4.23,'d','p'
5.97,'g','p'
6.45,'d','p'
5.01,'d','p'
7.57,'d','p'
5.86,'g','p'
4.18,'g','p'
5.13,'d','p'
4.27,'d','p'
4.84,'g','p'
4.01,'g','p'
5.01,'d','p'
4.43,'d','p'
4.76,'g','p'
6.38,'g','p'
4.2,'g','p'
4.61,'g','p'
5.72,'g','p'
5.92,'g','p'
6.44,'g','p'
5.09,'g','p'
5.46,'g','p'
6.81,'d','p'
4.69,'d','p'
7.26,'d','p'
6.27,'g','p'
5.27,'d','p'
4.77,'g','p'
6.52,'g','p'
5.25,'g','p'
5.09,'d','p'
6.52,'g','p'
5.42,'g','p'
4.48,'g','p'
6.41,'d','p'
5.94,'g','p'
5.96,'d','p'
5.59,'d','p'
5.37,'d','p'
4.87,'g','p'
4.58,'g','p'
6.15,'g','p'
7.07,'g','p'
6.94,'g','p'
4.27,'d','p'
5.78,'d','p'
5.62,'g','p'
5.29,'d','p'
7.63,'d','p'
7.09,'g','p'
5.44,'g','p'
5.82,'d','p'
5.06,'g','p'
4.09,'g','p'
5.53,'d','p'
6.97,'g','p'
5.35,'d','p'
4.71,'g','p'
4.02,'g','p'
5.92,'g','p'
6.11,'d','p'
4.7,'d','p'
4.67,'g','p'
4.2,'d','p'
5.03,'d','p'
6.5,'g','p'
5.01,'d','p'
6.37,'g','p'
4.66,'d','p'
4.94,'g','p'
6.54,'d','p'
5.77,'d','p'
6.17,'g','p'
5.32,'d','p'
4.03,'d','p'
5.57,'d','p'
5.13,'d','p'
5.72,'g','p'
5.96,'d','p'
6.54,'d','p'
6.25,'d','p'
7.16,'g','p'
5.81,'g','p'
5.45,'d','p'
5.25,'g','p'
6.62,'g','p'
5.68,'d','p'
6.47,'d','p'
5.59,'g','p'
4.97,'g','p'
5.1,'d','p'
6.08,'d','p'
5.64,'d','p'
5,'d','p'
5.98,'d','p'
5.1,'d','p'
5.86,'d','p'
6.81,'g','p'
6.48,'d','p'
5.08,'d','p'
6.21,'g','p'
5.87,'g','p'
5.16,'g','p'
5.58,'g','p'
6.14,'d','p'
6.27,'d','p'
5.96,'g','p'
6.15,'d','p'
5.54,'d','p'
6.03,'d','p'
4.79,'g','p'
6,'g','p'
6.98,'d','p'
5.73,'g','p'
7.07,'g','p'
5.95,'d','p'
4.72,'d','p'
6.88,'g','p'
6.97,'g','p'
5.79,'g','p'
5.97,'g','p'
5.05,'d','p'
6.03,'d','p'
4.36,'g','p'
5.32,'g','p'
5.23,'d','p'
4.71,'g','p'
4.96,'d','p'
5.72,'g','p'
6.05,'d','p'
6.67,'d','p'
6.55,'g','p'
3.79,'d','p'
5.18,'g','p'
6.1,'g','p'
3.99,'d','p'
5.25,'g','p'
4.15,'d','p'
5.98,'d','p'
7.07,'g','p'
5.82,'d','p'
6.81,'d','p'
4.47,'g','p'
6.92,'g','p'
4.6,'g','p'
6.28,'d','p'
6.35,'d','p'
5.33,'g','p'
5.46,'d','p'
3.94,'g','p'
5.64,'d','p'
5.18,'d','p'
5.73,'d','p'
4.77,'g','p'
7.1,'g','p'
4.97,'d','p'
5,'g','p'
4.36,'g','p'
2.55,'g','p'
5.76,'g','p'
5.22,'d','p'
6.53,'d','p'
5.18,'g','p'
6.75,'d','p'
5.6,'g','p'
5.73,'g','p'
7.18,'d','p'
6.21,'g','p'
6.13,'g','p'
6.99,'g','p'
5.66,'d','p'
5.19,'d','p'
5.31,'g','p'
5.39,'d','p'
7.18,'g','p'
5.48,'g','p'
6.03,'g','p'
4.38,'g','p'
5.81,'d','p'
7.02,'g','p'
5.33,'d','p'
5.23,'d','p'
5,'g','p'
5.97,'g','p'
4.83,'g','p'
5.36,'d','p'
5.73,'g','p'
4.86,'d','p'
5.52,'g','p'
5.47,'g','p'
5,'d','p'
4.54,'d','p'
4.98,'d','p'
6.14,'d','p'
6.2,'g','p'
5.58,'g','p'
4.2,'d','p'
3.6,'g','p'
4.82,'g','p'
5.08,'g','p'
6.82,'d','p'
5.78,'g','p'
4.58,'d','p'
5.9,'d','p'
5.44,'d','p'
5.15,'d','p'
5.15,'d','p'
4.98,'d','p'
3.5,'d','p'
5.36,'d','p'
4.52,'d','p'
5.38,'d','p'
4.6,'d','p'
4.04,'d','p'
4.27,'d','p'
4.85,'d','p'
4.97,'d','p'
5.18,'d','p'
5.52,'d','p'
4.81,'d','p'
4.59,'d','p'
4.48,'d','p'
5.26,'d','p'
4.71,'d','p'
5.88,'d','p'
5.05,'d','p'
5.1,'d','p'
6.31,'d','p'
5.2,'d','p'
4.56,'d','p'
5.73,'d','p'
6.29,'d','p'
4.31,'d','p'
4.01,'d','p'
4.47,'d','p'
4.36,'d','p'
5.94,'d','p'
4.93,'d','p'
4.63,'d','p'
3.42,'d','p'
5.36,'d','p'
5.81,'d','p'
5.18,'d','p'
5.43,'d','p'
5.4,'d','p'
4.91,'d','p'
6.14,'d','p'
3.94,'d','p'
4.78,'d','p'
5.78,'d','p'
4.39,'d','p'
5.08,'d','p'
5.72,'d','p'
5.4,'d','p'
3.77,'d','p'
5.65,'d','p'
4.2,'d','p'
4.78,'d','p'
4.79,'d','p'
5.06,'d','p'
4.91,'d','p'
5.19,'d','p'
6.24,'d','p'
4.67,'d','p'
3.95,'d','p'
5.73,'d','p'
5.68,'d','p'
5.32,'d','p'
4.61,'d','p'
3.76,'d','p'
6.26,'d','p'
4.52,'d','p'
3.82,'d','p'
7.25,'d','p'
4.38,'d','p'
4.9,'d','p'
4.42,'d','p'
4.83,'d','p'
5.82,'d','p'
5.03,'d','p'
3.56,'d','p'
5.88,'d','p'
4.64,'d','p'
5.29,'d','p'
4.92,'d','p'
4.69,'d','p'
4.17,'d','p'
4.77,'d','p'
4.21,'d','p'
5.9,'d','p'
4.64,'d','p'
5.73,'d','p'
5.05,'d','p'
5.12,'d','p'
4.43,'d','p'
5.83,'d','p'
5.35,'d','p'
5.04,'d','p'
5.73,'d','p'
5.37,'d','p'
4.88,'d','p'
4.82,'d','p'
5.35,'d','p'
4.6,'d','p'
4.25,'d','p'
4.62,'d','p'
4.99,'d','p'
5.26,'d','p'
4.92,'d','p'
5.17,'d','p'
5.25,'d','p'
5.79,'d','p'
5.74,'d','p'
5.56,'d','p'
4.8,'d','p'
4.98,'d','p'
4.04,'d','p'
4.74,'d','p'
4.5,'d','p'
6.71,'d','p'
4.62,'d','p'
4.6,'d','p'
5.56,'d','p'
6.7,'d','p'
4.2,'d','p'
5.62,'d','p'
6.11,'d','p'
4.41,'d','p'
6.11,'d','p'
5.52,'d','p'
5.26,'d','p'
5.1,'d','p'
6.34,'d','p'
5.77,'d','p'
4.47,'d','p'
5.27,'d','p'
5.77,'d','p'
5.7,'d','p'
4.42,'d','p'
4.32,'d','p'
4.23,'d','p'
6.15,'d','p'
6.16,'d','p'
3.92,'d','p'
4.01,'d','p'
5.05,'d','p'
5.59,'d','p'
5.2,'d','p'
4.82,'d','p'
4.85,'d','p'
6.31,'d','p'
4.29,'d','p'
6.14,'d','p'
4.7,'d','p'
4.72,'d','p'
4.61,'d','p'
4.27,'d','p'
5.69,'d','p'
4.56,'d','p'
3.8,'d','p'
5.18,'d','p'
4.19,'d','p'
6.08,'d','p'
5.18,'d','p'
5.85,'d','p'
4.28,'d','p'
4.22,'d','p'
4.92,'d','p'
5.75,'d','p'
3.82,'d','p'
4.94,'d','p'
6.05,'d','p'
4.53,'d','p'
4.89,'d','p'
5.29,'d','p'
4.74,'d','p'
4.59,'d','p'
4.16,'d','p'
5.46,'d','p'
5.44,'d','p'
5.69,'d','p'
4.52,'d','p'
3.74,'d','p'
4.86,'d','p'
3.41,'d','p'
5.2,'d','p'
4.75,'d','p'
3.96,'d','p'
4.87,'d','p'
4.51,'d','p'
4.78,'d','p'
5.92,'d','p'
4.05,'d','p'
3.76,'d','p'
5.04,'d','p'
3.79,'d','p'
5.03,'d','p'
5.07,'d','p'
5.89,'d','p'
5.21,'d','p'
4.62,'d','p'
4.55,'d','p'
4.45,'d','p'
4.82,'d','p'
5.02,'d','p'
4.99,'d','p'
5.36,'d','p'
5.04,'d','p'
4.32,'d','p'
5.38,'d','p'
5.64,'d','p'
5.93,'d','p'
4.69,'d','p'
7.39,'d','p'
5.21,'d','p'
5.2,'d','p'
5.09,'d','p'
4.99,'d','p'
5.99,'d','p'
4.51,'d','p'
4.6,'d','p'
3.75,'d','p'
5.14,'d','p'
4.87,'d','p'
4.24,'d','p'
4.5,'d','p'
4.01,'d','p'
4.6,'d','p'
5.81,'d','p'
4.65,'d','p'
4.82,'d','p'
5.08,'d','p'
3.86,'d','p'
5.07,'d','p'
4.72,'d','p'
4.41,'d','p'
3.89,'d','p'
5,'d','p'
4.5,'d','p'
4.97,'d','p'
5.43,'d','p'
5.61,'d','p'
4.42,'d','p'
5.67,'d','p'
5.29,'d','p'
5.85,'d','p'
5.16,'d','p'
5.49,'d','p'
4.13,'d','p'
4.49,'d','p'
5.74,'d','p'
4.78,'d','p'
5.91,'d','p'
4.43,'d','p'
4.32,'d','p'
4.47,'d','p'
4.61,'d','p'
4.89,'d','p'
5.18,'d','p'
4.66,'d','p'
4.98,'d','p'
3.98,'d','p'
5.27,'d','p'
5.08,'d','p'
5.45,'d','p'
4.64,'d','p'
6.03,'d','p'
6.04,'d','p'
4.58,'d','p'
4.84,'d','p'
6.53,'d','p'
6.04,'d','p'
4.58,'d','p'
3.99,'d','p'
5.42,'d','p'
5.16,'d','p'
5.36,'d','p'
4.44,'d','p'
5.28,'d','p'
4.93,'d','p'
3.57,'d','p'
4.91,'d','p'
4.56,'d','p'
4.04,'d','p'
5.07,'d','p'
4.92,'d','p'
5.82,'d','p'
4.48,'d','p'
4.36,'d','p'
4.91,'d','p'
5.56,'d','p'
5.47,'d','p'
4.53,'d','p'
5.37,'d','p'
4.65,'d','p'
5.26,'d','p'
5.47,'d','p'
5.83,'d','p'
5.44,'d','p'
4.51,'d','p'
4.42,'d','p'
6.58,'d','p'
5.69,'d','p'
4.02,'d','p'
4.41,'d','p'
4.76,'d','p'
5.99,'d','p'
4.5,'d','p'
5.73,'d','p'
5.67,'d','p'
4.82,'d','p'
4.88,'d','p'
6.14,'d','p'
5.17,'d','p'
5.76,'d','p'
4.79,'d','p'
4.63,'d','p'
4.86,'d','p'
4.8,'d','p'
5.37,'d','p'
3.91,'d','p'
5.43,'d','p'
4.82,'d','p'
4.38,'d','p'
5.62,'d','p'
4.25,'d','p'
5.44,'d','p'
4.58,'d','p'
5.14,'d','p'
4.53,'d','p'
3.87,'d','p'
4.9,'d','p'
5.41,'d','p'
5.18,'d','p'
5.44,'d','p'
4.46,'d','p'
5.46,'d','p'
4.67,'d','p'
4.65,'d','p'
3.49,'d','p'
4.84,'d','p'
4.91,'d','p'
4.43,'d','p'
4.73,'d','p'
4.68,'d','p'
5.33,'d','p'
3.77,'d','p'
5.18,'d','p'
5.44,'d','p'
3.57,'d','p'
6.08,'d','p'
5.08,'d','p'
4.2,'d','p'
4.84,'d','p'
4.11,'d','p'
6.43,'d','p'
2.71,'d','p'
1.41,'d','p'
2.71,'p','p'
2.87,'p','p'
1.89,'p','p'
2.82,'d','p'
2.61,'p','p'
2.6,'p','p'
2.13,'d','p'
1.65,'p','p'
2.04,'d','p'
2.93,'d','p'
2.81,'d','p'
2.21,'p','p'
2.39,'p','p'
3.05,'p','p'
2.01,'d','p'
3.28,'p','p'
1.95,'d','p'
2.96,'d','p'
1.93,'d','p'
3.13,'p','p'
2.58,'d','p'
2.01,'d','p'
1.96,'p','p'
2.23,'d','p'
2.68,'p','p'
1.98,'d','p'
3.09,'d','p'
2.11,'d','p'
3.3,'d','p'
2.45,'p','p'
2.32,'d','p'
2.24,'d','p'
3.19,'d','p'
2.29,'d','p'
2.87,'p','p'
1.98,'p','p'
2.28,'p','p'
2.69,'p','p'
2.6,'p','p'
1.85,'p','p'
3.47,'p','p'
3.18,'d','p'
2.72,'p','p'
1.87,'d','p'
3.14,'d','p'
2.45,'d','p'
1.26,'p','p'
1.94,'p','p'
2.24,'p','p'
3.52,'p','p'
2.79,'d','p'
1.51,'d','p'
2.68,'d','p'
3.42,'p','p'
2.02,'d','p'
2.26,'p','p'
1.9,'d','p'
2.13,'p','p'
2.57,'p','p'
1.5,'d','p'
2,'p','p'
2.89,'p','p'
2.89,'p','p'
2.49,'d','p'
2.38,'d','p'
2.42,'d','p'
2.09,'p','p'
2.83,'p','p'
3.81,'d','p'
2.65,'d','p'
3.52,'d','p'
2.3,'p','p'
2.43,'p','p'
2.85,'p','p'
3.06,'d','p'
2.84,'d','p'
1.93,'d','p'
1.64,'d','p'
3.15,'p','p'
1.91,'d','p'
2.95,'p','p'
2.93,'p','p'
2.59,'p','p'
1.69,'d','p'
2.2,'d','p'
2.97,'d','p'
2.86,'p','p'
3.61,'d','p'
2.7,'p','p'
2.32,'d','p'
2.81,'d','p'
1.48,'d','p'
3.15,'p','p'
3.02,'d','p'
2.47,'d','p'
2.66,'p','p'
3.11,'d','p'
1.67,'p','p'
2.46,'d','p'
3,'p','p'
1.87,'d','p'
2.74,'d','p'
2.07,'p','p'
2.81,'d','p'
2.73,'p','p'
2.71,'d','p'
2.87,'d','p'
2.36,'d','p'
2.16,'p','p'
2.47,'d','p'
2.75,'p','p'
2.59,'p','p'
2.83,'p','p'
2.28,'p','p'
2.92,'p','p'
3.46,'p','p'
2.84,'p','p'
2.45,'p','p'
2.42,'d','p'
2.5,'p','p'
2.92,'p','p'
2.32,'d','p'
1.9,'p','p'
2.36,'p','p'
3.29,'p','p'
2.76,'p','p'
2.48,'p','p'
2.45,'p','p'
2.64,'p','p'
2.91,'p','p'
1.63,'p','p'
2.52,'d','p'
2.59,'p','p'
3.71,'p','p'
2.73,'p','p'
2.99,'p','p'
2.82,'d','p'
2.21,'d','p'
2.86,'d','p'
1.56,'p','p'
2.82,'p','p'
2.91,'p','p'
2.97,'p','p'
2.41,'p','p'
2.28,'p','p'
2.03,'p','p'
2.6,'d','p'
1.95,'d','p'
2.64,'d','p'
2.07,'d','p'
2.75,'p','p'
2.92,'p','p'
2.83,'d','p'
2.11,'d','p'
3.44,'d','p'
2.55,'p','p'
2.53,'d','p'
2.77,'d','p'
2.34,'d','p'
2.27,'d','p'
2.39,'p','p'
1.76,'p','p'
1.5,'p','p'
2.38,'d','p'
2.28,'d','p'
3.03,'p','p'
2.26,'p','p'
2.73,'d','p'
2.99,'p','p'
2.32,'d','p'
2.46,'d','p'
2.41,'p','p'
2.8,'d','p'
2.45,'d','p'
2.21,'p','p'
2.91,'d','p'
2.42,'d','p'
2.08,'d','p'
2.98,'p','p'
1.87,'d','p'
2.39,'d','p'
2.44,'p','p'
2.51,'p','p'
1.7,'d','p'
2.85,'p','p'
1.73,'d','p'
1.89,'d','p'
1.87,'d','p'
2.53,'p','p'
1.95,'d','p'
2.5,'d','p'
3.03,'p','p'
2.26,'d','p'
2.65,'p','p'
2.67,'p','p'
2.91,'d','p'
1.29,'d','p'
2.01,'p','p'
2.13,'p','p'
2.98,'d','p'
2.58,'p','p'
2.68,'p','p'
1.8,'p','p'
2.8,'p','p'
2.59,'d','p'
2.6,'p','p'
1.93,'d','p'
2.29,'p','p'
3.75,'d','p'
2.64,'d','p'
2.66,'d','p'
2.21,'d','p'
2.58,'d','p'
2.86,'d','p'
3.41,'p','p'
2.97,'p','p'
2.09,'p','p'
3.41,'d','p'
2.43,'d','p'
2.46,'p','p'
1.96,'d','p'
1.92,'d','p'
2.1,'d','p'
4.02,'d','p'
2.63,'p','p'
2.26,'p','p'
3.12,'p','p'
2.64,'d','p'
2.52,'p','p'
2.52,'p','p'
2.17,'d','p'
2.82,'d','p'
3.3,'p','p'
1.96,'p','p'
2.87,'p','p'
2.27,'d','p'
1.76,'d','p'
2.15,'d','p'
2.37,'p','p'
2.27,'p','p'
2.28,'d','p'
3.44,'p','p'
3.15,'p','p'
2.03,'p','p'
2.76,'p','p'
2.44,'d','p'
2.63,'p','p'
2.6,'p','p'
3.08,'p','p'
1.1,'p','p'
3.22,'p','p'
2.41,'d','p'
2.4,'p','p'
2.68,'p','p'
2.55,'d','p'
1.96,'p','p'
2.8,'d','p'
2.22,'d','p'
2.23,'p','p'
2.87,'d','p'
2.13,'p','p'
2.52,'d','p'
2,'d','p'
2.06,'p','p'
3.23,'d','p'
2.74,'p','p'
2.31,'p','p'
2.42,'p','p'
2,'d','p'
1.8,'d','p'
2.22,'p','p'
2.44,'p','p'
3.23,'p','p'
2.64,'p','p'
1.69,'p','p'
3.3,'p','p'
2.26,'p','p'
3.08,'p','p'
2.3,'p','p'
1.57,'p','p'
2.56,'d','p'
3.79,'p','p'
3.57,'p','p'
3.33,'p','p'
1.82,'p','p'
2.1,'d','p'
1.93,'p','p'
3.01,'p','p'
2.35,'p','p'
3.12,'d','p'
2.19,'d','p'
2.47,'p','p'
3.2,'p','p'
2.41,'p','p'
1.17,'p','p'
2.42,'d','p'
3.16,'d','p'
3.49,'d','p'
2.2,'p','p'
2.54,'d','p'
2.85,'p','p'
3.08,'p','p'
2.73,'d','p'
2.53,'p','p'
2.32,'p','p'
2.61,'d','p'
2.32,'d','p'
2.33,'d','p'
1.56,'p','p'
2.2,'d','p'
2.58,'p','p'
2.65,'p','p'
2.6,'d','p'
2.63,'d','p'
2.23,'p','p'
2.23,'d','p'
1.59,'d','p'
2.09,'p','p'
3.22,'d','p'
3.2,'d','p'
3.25,'d','p'
2.06,'d','p'
1.92,'d','p'
2.3,'p','p'
2.34,'d','p'
3,'p','p'
3.31,'d','p'
2.78,'p','p'
3.41,'d','p'
3.54,'d','p'
1.63,'p','p'
2.11,'d','p'
1.54,'d','p'
1.8,'d','p'
2.03,'p','p'
2.53,'p','p'
2.87,'p','p'
2.38,'d','p'
1.41,'d','p'
3.14,'d','p'
2.78,'p','p'
1.97,'p','p'
2.89,'p','p'
2.75,'p','p'
2.56,'d','p'
2.19,'d','p'
2.81,'p','p'
3.17,'p','p'
1.86,'d','p'
2.13,'d','p'
2.79,'p','p'
7.62,'d','p'
6.93,'d','p'
8.85,'d','p'
7.13,'d','p'
6.48,'d','p'
6.42,'d','p'
6.26,'d','p'
6.08,'d','p'
5.43,'d','p'
7.75,'d','p'
5.59,'d','p'
7.05,'d','p'
8.35,'d','p'
6.82,'d','p'
5.98,'d','p'
7.56,'d','p'
6.1,'d','p'
7.11,'d','p'
6.17,'d','p'
6.66,'d','p'
7.25,'d','p'
7.67,'d','p'
6.24,'d','p'
7.41,'d','p'
6.4,'d','p'
7.68,'d','p'
7.11,'d','p'
7.09,'d','p'
7.31,'d','p'
7.21,'d','p'
6.04,'d','p'
6.32,'d','p'
6.74,'d','p'
8.9,'d','p'
7.46,'d','p'
5.84,'d','p'
6.48,'d','p'
6.78,'d','p'
5.65,'d','p'
7.22,'d','p'
6.7,'d','p'
7.82,'d','p'
9.18,'d','p'
5.31,'d','p'
6.43,'d','p'
7.67,'d','p'
7.92,'d','p'
5.98,'d','p'
8.91,'d','p'
6.67,'d','p'
7.43,'d','p'
9.33,'d','p'
7.37,'d','p'
7.24,'d','p'
5.93,'d','p'
5.24,'d','p'
6.37,'d','p'
6.38,'d','p'
8.07,'d','p'
6.7,'d','p'
6.74,'d','p'
7.44,'d','p'
7.01,'d','p'
7.89,'d','p'
6.86,'d','p'
6.34,'d','p'
6.93,'d','p'
8.66,'d','p'
8.22,'d','p'
6.56,'d','p'
6.62,'d','p'
6.63,'d','p'
5.56,'d','p'
7.35,'d','p'
6.29,'d','p'
6.66,'d','p'
7.05,'d','p'
6.62,'d','p'
4.75,'d','p'
7.81,'d','p'
5.26,'d','p'
6.86,'d','p'
7.8,'d','p'
8.12,'d','p'
6.46,'d','p'
6.79,'d','p'
6.26,'d','p'
7.43,'d','p'
8.16,'d','p'
6.34,'d','p'
8.23,'d','p'
4.84,'d','p'
7.68,'d','p'
4.88,'d','p'
6.72,'d','p'
8.7,'d','p'
5.78,'d','p'
8.25,'d','p'
6.74,'d','p'
5.61,'d','p'
6.97,'d','p'
7.7,'d','p'
7.55,'d','p'
8.42,'d','p'
6.56,'d','p'
6.55,'d','p'
8.67,'d','p'
4.4,'d','p'
9.17,'d','p'
6.72,'d','p'
6.79,'d','p'
6.93,'d','p'
7.03,'d','p'
7.93,'d','p'
7.52,'d','p'
7.8,'d','p'
7.73,'d','p'
6.99,'d','p'
8.09,'d','p'
5.65,'d','p'
6.29,'d','p'
6.61,'d','p'
4.9,'d','p'
6.09,'d','p'
5.12,'d','p'
5.86,'d','p'
6.84,'d','p'
8.01,'d','p'
7.55,'d','p'
6.3,'d','p'
5.6,'d','p'
6.98,'d','p'
7.49,'d','p'
7.54,'d','p'
6.17,'d','p'
7.04,'d','p'
6.63,'d','p'
7.54,'d','p'
6.15,'d','p'
8.46,'d','p'
6.34,'d','p'
6.78,'d','p'
6.36,'d','p'
7.65,'d','p'
6.87,'d','p'
7.18,'d','p'
6.32,'d','p'
8.84,'d','p'
7.97,'d','p'
6.73,'d','p'
6.69,'d','p'
6.2,'d','p'
6.34,'d','p'
9.42,'d','p'
7.38,'d','p'
8.62,'d','p'
7.49,'d','p'
9.05,'d','p'
7.32,'d','p'
6.2,'d','p'
8.35,'d','p'
7,'d','p'
7.54,'d','p'
6.31,'d','p'
6.59,'d','p'
5.07,'d','p'
6.94,'d','p'
6.85,'d','p'
8.58,'d','p'
5.99,'d','p'
8.22,'d','p'
8.01,'d','p'
4.83,'d','p'
7.07,'d','p'
6.92,'d','p'
5.91,'d','p'
7.2,'d','p'
5.96,'d','p'
6.43,'d','p'
5.35,'d','p'
6.23,'d','p'
6.97,'d','p'
7.73,'d','p'
5.78,'d','p'
6.79,'d','p'
7.2,'d','p'
5.52,'d','p'
8.38,'d','p'
6.88,'d','p'
7.33,'d','p'
6.97,'d','p'
6.45,'d','p'
8.17,'d','p'
5.72,'d','p'
5.53,'d','p'
6.95,'d','p'
6.87,'d','p'
7.28,'d','p'
8.18,'d','p'
6.1,'d','p'
7.47,'d','p'
5.6,'d','p'
5.96,'d','p'
6.41,'d','p'
7.55,'d','p'
6.48,'d','p'
8.07,'d','p'
6.87,'d','p'
7.44,'d','p'
7.7,'d','p'
8.42,'d','p'
6.1,'d','p'
6.6,'d','p'
5.97,'d','p'
9.05,'d','p'
7.56,'d','p'
6.15,'d','p'
6.34,'d','p'
6.38,'d','p'
7.76,'d','p'
6.33,'d','p'
8.14,'d','p'
8.34,'d','p'
8.05,'d','p'
8.49,'d','p'
7.31,'d','p'
6.24,'d','p'
6.12,'d','p'
7.68,'d','p'
5.45,'d','p'
6.11,'d','p'
5.75,'d','p'
5.93,'d','p'
5.32,'d','p'
4.42,'d','p'
7.8,'d','p'
8.47,'d','p'
7.99,'d','p'
8.14,'d','p'
6.9,'d','p'
7.25,'d','p'
7.67,'d','p'
7.37,'d','p'
7.49,'d','p'
6.69,'d','p'
7.69,'d','p'
7.87,'d','p'
5.8,'d','p'
7.62,'d','p'
6.33,'d','p'
6.25,'d','p'
6.68,'d','p'
4.78,'d','p'
8.09,'d','p'
5.68,'d','p'
6.16,'d','p'
7.33,'d','p'
9.71,'d','p'
9.2,'d','p'
6.56,'d','p'
6.24,'d','p'
7.09,'d','p'
5.47,'d','p'
8.95,'d','p'
7.27,'d','p'
9.45,'d','p'
7,'d','p'
7.85,'d','p'
5.62,'d','p'
5.93,'d','p'
7.56,'d','p'
6.65,'d','p'
5.66,'d','p'
6.86,'d','p'
6.53,'d','p'
7.82,'d','p'
7.78,'d','p'
7.91,'d','p'
6.64,'d','p'
7.78,'d','p'
5.4,'d','p'
6.91,'d','p'
6.33,'d','p'
5.57,'d','p'
5.71,'d','p'
6.23,'d','p'
6.16,'d','p'
7.98,'d','p'
8.23,'d','p'
6.14,'d','p'
6.96,'d','p'
6.68,'d','p'
5.57,'d','p'
7.32,'d','p'
6.12,'d','p'
6.49,'d','p'
7.62,'d','p'
7.61,'d','p'
5.66,'d','p'
7.28,'d','p'
9.05,'d','p'
7.37,'d','p'
7.13,'d','p'
7.92,'d','p'
6.97,'d','p'
8.97,'d','p'
6.07,'d','p'
7.71,'d','p'
6.41,'d','p'
8.2,'d','p'
6.91,'d','p'
9.55,'d','p'
6.34,'d','p'
8.13,'d','p'
6.21,'d','p'
7.39,'d','p'
5.46,'d','p'
7.38,'d','p'
8.27,'d','p'
7.06,'d','p'
7.4,'d','p'
7.47,'d','p'
6.93,'d','p'
7.61,'d','p'
7.15,'d','p'
7.36,'d','p'
6.6,'d','p'
7.83,'d','p'
6.27,'d','p'
5.18,'d','p'
7.02,'d','p'
7.63,'d','p'
5.62,'d','p'
7.04,'d','p'
8.62,'d','p'
7.61,'d','p'
7.1,'d','p'
6.4,'d','p'
6.78,'d','p'
5.61,'d','p'
5.69,'d','p'
6.85,'d','p'
5.14,'d','p'
8.65,'d','p'
7.66,'d','p'
5.35,'d','p'
5.6,'d','p'
7.11,'d','p'
6.4,'d','p'
7.29,'d','p'
6.99,'d','p'
7.47,'d','p'
6.87,'d','p'
3.45,'d','p'
3.93,'d','p'
3.47,'d','p'
3.81,'d','p'
3.68,'d','p'
3.49,'d','p'
2.55,'d','p'
3.68,'d','p'
4.43,'d','p'
5.04,'d','p'
4.5,'d','p'
3.74,'d','p'
2.69,'d','p'
3.99,'d','p'
2.87,'d','p'
3.16,'d','p'
3.5,'d','p'
3.58,'d','p'
2.91,'d','p'
3.66,'d','p'
2.94,'d','p'
3.8,'d','p'
4.01,'d','p'
2.8,'d','p'
3.32,'d','p'
3.21,'d','p'
4.54,'d','p'
3.19,'d','p'
3.65,'d','p'
3.51,'d','p'
3.15,'d','p'
2.87,'d','p'
3.68,'d','p'
2.84,'d','p'
3.8,'d','p'
4.39,'d','p'
4.15,'d','p'
3.67,'d','p'
3.55,'d','p'
2.73,'d','p'
3.4,'d','p'
3.71,'d','p'
3.17,'d','p'
3.39,'d','p'
3.01,'d','p'
3.72,'d','p'
2.7,'d','p'
3.41,'d','p'
3.79,'d','p'
3.84,'d','p'
3.97,'d','p'
3.64,'d','p'
3.23,'d','p'
4.89,'d','p'
3.16,'d','p'
3.49,'d','p'
3,'d','p'
3.46,'d','p'
3.73,'d','p'
3.98,'d','p'
3.28,'d','p'
4.25,'d','p'
3.86,'d','p'
4.44,'d','p'
3.81,'d','p'
3.89,'d','p'
3.75,'d','p'
3.64,'d','p'
3.26,'d','p'
2.8,'d','p'
3.27,'d','p'
3.19,'d','p'
4.03,'d','p'
2.73,'d','p'
3.64,'d','p'
2.56,'d','p'
2.99,'d','p'
4.26,'d','p'
3.96,'d','p'
2.47,'d','p'
3.13,'d','p'
2.73,'d','p'
3.35,'d','p'
3.76,'d','p'
4.46,'d','p'
3.26,'d','p'
3.52,'d','p'
4.03,'d','p'
3.23,'d','p'
4.66,'d','p'
2.98,'d','p'
3.64,'d','p'
3.66,'d','p'
3.59,'d','p'
3.34,'d','p'
4.85,'d','p'
3.53,'d','p'
3.58,'d','p'
3.53,'d','p'
3.4,'d','p'
3.82,'d','p'
2.94,'d','p'
3.25,'d','p'
3.71,'d','p'
2.72,'d','p'
3.44,'d','p'
3.51,'d','p'
4.4,'d','p'
3.8,'d','p'
3.41,'d','p'
3.91,'d','p'
3.26,'d','p'
3.15,'d','p'
4.55,'d','p'
3.68,'d','p'
3.05,'d','p'
2.94,'d','p'
3.3,'d','p'
3.35,'d','p'
2.97,'d','p'
2.32,'d','p'
3.71,'d','p'
4.08,'d','p'
3.88,'d','p'
3.2,'d','p'
2.65,'d','p'
3.56,'d','p'
3.28,'d','p'
4.53,'d','p'
3.11,'d','p'
3.7,'d','p'
2.62,'d','p'
2.51,'d','p'
2.81,'d','p'
3.03,'d','p'
3.82,'d','p'
2.66,'d','p'
3.33,'d','p'
3.08,'d','p'
2.52,'d','p'
3.64,'d','p'
3.29,'d','p'
3.74,'d','p'
4.26,'d','p'
3.34,'d','p'
2.84,'d','p'
4.04,'d','p'
2.67,'d','p'
2.68,'d','p'
3.65,'d','p'
4.99,'d','p'
3.21,'d','p'
3.8,'d','p'
3.24,'d','p'
3.14,'d','p'
2.65,'d','p'
3.59,'d','p'
3.14,'d','p'
3.7,'d','p'
3.11,'d','p'
3.56,'d','p'
3.55,'d','p'
4.39,'d','p'
3.24,'d','p'
4.3,'d','p'
3.73,'d','p'
3.57,'d','p'
3.39,'d','p'
4.13,'d','p'
3.34,'d','p'
2.84,'d','p'
3.24,'d','p'
2.65,'d','p'
4.25,'d','p'
3.86,'d','p'
3.51,'d','p'
3.44,'d','p'
3.14,'d','p'
3.71,'d','p'
3.06,'d','p'
3.69,'d','p'
3.63,'d','p'
4.04,'d','p'
3.97,'d','p'
3.68,'d','p'
4.23,'d','p'
3.74,'d','p'
3.28,'d','p'
4.34,'d','p'
3.35,'d','p'
3.42,'d','p'
3.56,'d','p'
4.65,'d','p'
3.7,'d','p'
3.11,'d','p'
4.75,'d','p'
2.8,'d','p'
3.51,'d','p'
4.51,'d','p'
3.65,'d','p'
3.63,'d','p'
3.05,'d','p'
3.39,'d','p'
3.23,'d','p'
3.24,'d','p'
3.31,'d','p'
3.37,'d','p'
3.89,'d','p'
3.11,'d','p'
3.23,'d','p'
3.61,'d','p'
3.22,'d','p'
3.1,'d','p'
3.01,'d','p'
3.65,'d','p'
2.6,'d','p'
3.57,'d','p'
2.4,'d','p'
2.96,'d','p'
3.42,'d','p'
3.36,'d','p'
3.44,'d','p'
2.75,'d','p'
4.01,'d','p'
3.48,'d','p'
4.34,'d','p'
4.63,'d','p'
3.18,'d','p'
3.56,'d','p'
3.91,'d','p'
3.68,'d','p'
4.24,'d','p'
3.55,'d','p'
3.18,'d','p'
3.98,'d','p'
3.24,'d','p'
3.92,'d','p'
3.73,'d','p'
4.49,'d','p'
4.55,'d','p'
3.39,'d','p'
2.79,'d','p'
3.2,'d','p'
4.22,'d','p'
3.74,'d','p'
3.42,'d','p'
3.09,'d','p'
3.25,'d','p'
3.65,'d','p'
3.49,'d','p'
3.77,'d','p'
3.16,'d','p'
2.63,'d','p'
4.25,'d','p'
3.28,'d','p'
3.51,'d','p'
3.12,'d','p'
3.18,'d','p'
3.23,'d','p'
3.27,'d','p'
2.78,'d','p'
3.13,'d','p'
3.8,'d','p'
4.14,'d','p'
4.2,'d','p'
3.59,'d','p'
2.8,'d','p'
3.22,'d','p'
3.18,'d','p'
3.25,'d','p'
4.14,'d','p'
2.96,'d','p'
3.52,'d','p'
4.19,'d','p'
3.51,'d','p'
3.77,'d','p'
4.46,'d','p'
2.92,'d','p'
3.1,'d','p'
3.21,'d','p'
4.16,'d','p'
3.13,'d','p'
3.39,'d','p'
3.78,'d','p'
3.84,'d','p'
4.52,'d','p'
4.01,'d','p'
2.56,'d','p'
2.48,'d','p'
2.85,'d','p'
2.76,'d','p'
3.97,'d','p'
3.5,'d','p'
3.67,'d','p'
3.68,'d','p'
3.83,'d','p'
2.73,'d','p'
3.09,'d','p'
2.79,'d','p'
3.41,'d','p'
2.8,'d','p'
4.44,'d','p'
4.51,'d','p'
3.02,'d','p'
2.89,'d','p'
3.44,'d','p'
3.73,'d','p'
3.43,'d','p'
3.19,'d','p'
3.38,'d','p'
2.48,'d','p'
3.34,'d','p'
3.11,'d','p'
3.31,'d','p'
4.47,'d','p'
3.74,'d','p'
3.77,'d','p'
3.29,'d','p'
3.75,'d','p'
2.99,'d','p'
3.4,'d','p'
3.56,'d','p'
3.65,'d','p'
3.76,'d','p'
3.42,'d','p'
3.48,'d','p'
4.21,'d','p'
2.72,'d','p'
3.47,'d','p'
2.19,'d','p'
3.47,'d','p'
3.21,'d','p'
2.46,'d','p'
3.48,'d','p'
4.29,'d','p'
3.97,'d','p'
4.15,'d','p'
3.82,'d','p'
4.19,'d','p'
4.18,'d','p'
3.81,'d','p'
3.39,'d','p'
3.74,'d','p'
3.09,'d','p'
4.09,'d','p'
3.12,'d','p'
3.54,'d','p'
3,'d','p'
3.45,'d','p'
4.51,'d','p'
3.87,'d','p'
3.05,'d','p'
4.51,'d','p'
4.98,'d','p'
5.27,'d','p'
5.27,'d','p'
6.45,'d','p'
5.49,'d','p'
6.24,'d','p'
5.85,'d','p'
5.69,'d','p'
6.45,'d','p'
6.27,'d','p'
4.26,'d','p'
4.88,'d','p'
7.53,'d','p'
5.83,'d','p'
5.79,'d','p'
5.57,'d','p'
5.3,'d','p'
5.55,'d','p'
5.34,'d','p'
7.6,'d','p'
5.87,'d','p'
6.2,'d','p'
7.14,'d','p'
6.52,'d','p'
6.96,'d','p'
6.83,'d','p'
7.28,'d','p'
6.71,'d','p'
6.3,'d','p'
6.47,'d','p'
5.45,'d','p'
5.37,'d','p'
6.64,'d','p'
7.18,'d','p'
6.45,'d','p'
5.68,'d','p'
6.15,'d','p'
5.37,'d','p'
6.7,'d','p'
5.95,'d','p'
5.31,'d','p'
6.89,'d','p'
6,'d','p'
6.38,'d','p'
5.02,'d','p'
5.81,'d','p'
6.79,'d','p'
7.1,'d','p'
6.48,'d','p'
6.92,'d','p'
5.52,'d','p'
6.24,'d','p'
5.74,'d','p'
5.98,'d','p'
6.67,'d','p'
7.09,'d','p'
6.06,'d','p'
5.78,'d','p'
6.6,'d','p'
6.75,'d','p'
5.8,'d','p'
6.14,'d','p'
6.6,'d','p'
5.59,'d','p'
6.02,'d','p'
5.36,'d','p'
6.58,'d','p'
6.1,'d','p'
6.66,'d','p'
4.48,'d','p'
5.44,'d','p'
5.24,'d','p'
6.39,'d','p'
6.37,'d','p'
5.8,'d','p'
5.46,'d','p'
6.72,'d','p'
5.37,'d','p'
6.06,'d','p'
6.22,'d','p'
5.46,'d','p'
5.66,'d','p'
6.02,'d','p'
5.55,'d','p'
4.92,'d','p'
6.85,'d','p'
5.52,'d','p'
5.59,'d','p'
5.28,'d','p'
5.85,'d','p'
4.56,'d','p'
5.99,'d','p'
6.83,'d','p'
6.24,'d','p'
6.09,'d','p'
5.37,'d','p'
5.48,'d','p'
6.65,'d','p'
6.51,'d','p'
6.49,'d','p'
6.46,'d','p'
5.51,'d','p'
6.14,'d','p'
6.15,'d','p'
5.28,'d','p'
5.26,'d','p'
7.45,'d','p'
6.05,'d','p'
6.62,'d','p'
6.64,'d','p'
6.66,'d','p'
6.4,'d','p'
6.03,'d','p'
6.45,'d','p'
6.32,'d','p'
6.5,'d','p'
5.75,'d','p'
6.15,'d','p'
5.82,'d','p'
5.47,'d','p'
6.79,'d','p'
6.4,'d','p'
6.08,'d','p'
5.59,'d','p'
6.32,'d','p'
6.52,'d','p'
5.59,'d','p'
6.07,'d','p'
6,'d','p'
4.95,'d','p'
5.26,'d','p'
5.76,'d','p'
4.66,'d','p'
5.96,'d','p'
6.82,'d','p'
6.33,'d','p'
6.86,'d','p'
5.88,'d','p'
6.45,'d','p'
5.94,'d','p'
6.41,'d','p'
5.34,'d','p'
7.36,'d','p'
5.56,'d','p'
5.28,'d','p'
5.14,'d','p'
5.6,'d','p'
7.12,'d','p'
5.79,'d','p'
5.31,'d','p'
6.12,'d','p'
5.99,'d','p'
5.55,'d','p'
5.94,'d','p'
6.09,'d','p'
6.37,'d','p'
6.18,'d','p'
4.71,'d','p'
6.17,'d','p'
7,'d','p'
7.41,'d','p'
5.88,'d','p'
7.21,'d','p'
4.94,'d','p'
6.49,'d','p'
5.53,'d','p'
6.2,'d','p'
6.31,'d','p'
4.53,'d','p'
6.03,'d','p'
4.62,'d','p'
5.29,'d','p'
6.17,'d','p'
7.03,'d','p'
5.59,'d','p'
6.57,'d','p'
5.37,'d','p'
5.49,'d','p'
5.86,'d','p'
5.89,'d','p'
5.64,'d','p'
5.73,'d','p'
7.06,'d','p'
5.62,'d','p'
5.75,'d','p'
6.32,'d','p'
7.03,'d','p'
6.36,'d','p'
5.94,'d','p'
6.72,'d','p'
5.69,'d','p'
7.36,'d','p'
5.72,'d','p'
5.83,'d','p'
5.39,'d','p'
6.24,'d','p'
5.96,'d','p'
5.87,'d','p'
5.23,'d','p'
5.61,'d','p'
6.41,'d','p'
6.28,'d','p'
5.38,'d','p'
5.99,'d','p'
5.75,'d','p'
4.88,'d','p'
5.84,'d','p'
6.16,'d','p'
6.88,'d','p'
5.44,'d','p'
6.37,'d','p'
4.99,'d','p'
6.35,'d','p'
4.67,'d','p'
5.7,'d','p'
6.37,'d','p'
4.55,'d','p'
5.36,'d','p'
4.75,'d','p'
6.46,'d','p'
6.46,'d','p'
5.78,'d','p'
6.61,'d','p'
5.77,'d','p'
6.75,'d','p'
6.97,'d','p'
6.88,'d','p'
5.75,'d','p'
6.77,'d','p'
6,'d','p'
5.95,'d','p'
7.34,'d','p'
6.88,'d','p'
5.3,'d','p'
5.14,'d','p'
6.16,'d','p'
5.74,'d','p'
4.98,'d','p'
5.95,'d','p'
6.29,'d','p'
5.68,'d','p'
5.37,'d','p'
6.67,'d','p'
5.02,'d','p'
6.1,'d','p'
6.86,'d','p'
5.46,'d','p'
6.99,'d','p'
5.63,'d','p'
6.97,'d','p'
6.18,'d','p'
5.46,'d','p'
5.17,'d','p'
5.63,'d','p'
6.9,'d','p'
5.29,'d','p'
5.45,'d','p'
5.83,'d','p'
6.65,'d','p'
5.83,'d','p'
5.97,'d','p'
5.7,'d','p'
6.86,'d','p'
6.06,'d','p'
7.39,'d','p'
6.06,'d','p'
6.2,'d','p'
4.52,'d','p'
5.88,'d','p'
5.41,'d','p'
5.95,'d','p'
5.6,'d','p'
4.64,'d','p'
6.29,'d','p'
4.66,'d','p'
5.39,'d','p'
5.74,'d','p'
6.09,'d','p'
5.16,'d','p'
4.15,'d','p'
5.86,'d','p'
5.72,'d','p'
5.32,'d','p'
7.39,'d','p'
6.73,'d','p'
6.69,'d','p'
6.99,'d','p'
6.4,'d','p'
5.39,'d','p'
5.96,'d','p'
6.8,'d','p'
5.71,'d','p'
6.78,'d','p'
5.94,'d','p'
5.5,'d','p'
6.17,'d','p'
6.97,'d','p'
6.26,'d','p'
5.8,'d','p'
6.11,'d','p'
6.63,'d','p'
7.3,'d','p'
4.89,'d','p'
5.82,'d','p'
6.21,'d','p'
5.86,'d','p'
5.11,'d','p'
6.06,'d','p'
6.23,'d','p'
5.23,'d','p'
4.87,'d','p'
5.28,'d','p'
5.76,'d','p'
6.43,'d','p'
5.94,'d','p'
6.21,'d','p'
5.35,'d','p'
6.52,'d','p'
5.55,'d','p'
5.72,'d','p'
5.71,'d','p'
5.42,'d','p'
6.89,'d','p'
6.52,'d','p'
4.91,'d','p'
5.05,'d','p'
7.24,'d','p'
5.83,'d','p'
6.93,'d','p'
6.27,'d','p'
6.11,'d','p'
5.28,'d','p'
5.56,'d','p'
6.09,'d','p'
5.33,'d','p'
5.85,'d','p'
6.22,'d','p'
5.91,'d','p'
7.06,'d','p'
5.51,'d','p'
7.01,'d','p'
6.16,'d','p'
6.17,'d','p'
5.7,'d','p'
7.53,'d','p'
5.1,'d','p'
5.68,'d','p'
4.83,'d','p'
5.73,'d','p'
5.83,'d','p'
5.6,'d','p'
6.03,'d','p'
5.66,'d','p'
8.46,'d','p'
10.79,'d','p'
8.4,'d','p'
10.56,'d','p'
10.4,'d','p'
12.63,'d','p'
11.46,'d','p'
13.57,'d','p'
10.83,'d','p'
8.76,'d','p'
10.68,'d','p'
9.31,'d','p'
9.95,'d','p'
8.9,'d','p'
11.77,'d','p'
10.26,'d','p'
9.67,'d','p'
10.98,'d','p'
8.96,'d','p'
11.99,'d','p'
10.75,'d','p'
10.85,'d','p'
11.11,'d','p'
9.83,'d','p'
8.06,'d','p'
9.85,'d','p'
9.12,'d','p'
8.09,'d','p'
10.75,'d','p'
9.35,'d','p'
11.42,'d','p'
13.23,'d','p'
11.37,'d','p'
12.1,'d','p'
9.95,'d','p'
12.15,'d','p'
8.55,'d','p'
9.61,'d','p'
12.19,'d','p'
9.52,'d','p'
10.41,'d','p'
9.94,'d','p'
11.59,'d','p'
11.11,'d','p'
10.38,'d','p'
10.61,'d','p'
8.3,'d','p'
13.88,'d','p'
7.93,'d','p'
10.5,'d','p'
10.91,'d','p'
9.46,'d','p'
11.16,'d','p'
9.81,'d','p'
12.57,'d','p'
12.23,'d','p'
11.14,'d','p'
9.74,'d','p'
10.19,'d','p'
10.58,'d','p'
9.4,'d','p'
8.05,'d','p'
9.22,'d','p'
9.79,'d','p'
11.21,'d','p'
11.67,'d','p'
9.96,'d','p'
12.51,'d','p'
11.28,'d','p'
11.22,'d','p'
9.23,'d','p'
11.36,'d','p'
10.97,'d','p'
12.89,'d','p'
13.49,'d','p'
9.76,'d','p'
11.38,'d','p'
12.13,'d','p'
10.57,'d','p'
9.89,'d','p'
9.5,'d','p'
11.24,'d','p'
9.14,'d','p'
11.99,'d','p'
11.42,'d','p'
12.24,'d','p'
13.12,'d','p'
12.78,'d','p'
10.87,'d','p'
11.74,'d','p'
11,'d','p'
9.91,'d','p'
9.68,'d','p'
12.07,'d','p'
9.93,'d','p'
8.79,'d','p'
9.47,'d','p'
10.96,'d','p'
7.83,'d','p'
12.29,'d','p'
11.23,'d','p'
8.83,'d','p'
13.61,'d','p'
9.65,'d','p'
11.76,'d','p'
11.1,'d','p'
11.42,'d','p'
12.11,'d','p'
11.24,'d','p'
9.82,'d','p'
9.96,'d','p'
8.51,'d','p'
8.59,'d','p'
10.82,'d','p'
11.97,'d','p'
9.78,'d','p'
10.66,'d','p'
10.17,'d','p'
11.07,'d','p'
10.12,'d','p'
9.22,'d','p'
11.39,'d','p'
10.58,'d','p'
8.77,'d','p'
10.05,'d','p'
11,'d','p'
11.52,'d','p'
11.21,'d','p'
10.69,'d','p'
6.08,'d','p'
11.53,'d','p'
10.89,'d','p'
10.04,'d','p'
10.41,'d','p'
9.15,'d','p'
10.22,'d','p'
13.38,'d','p'
13.48,'d','p'
11.02,'d','p'
9.2,'d','p'
8.5,'d','p'
9.24,'d','p'
10.91,'d','p'
6.77,'d','p'
10.43,'d','p'
12.02,'d','p'
9.45,'d','p'
10.75,'d','p'
12.41,'d','p'
10.19,'d','p'
10.33,'d','p'
10.07,'d','p'
8.8,'d','p'
11.42,'d','p'
9.82,'d','p'
11.43,'d','p'
12.02,'d','p'
10.71,'d','p'
8.54,'d','p'
9.55,'d','p'
11.85,'d','p'
10.3,'d','p'
9.98,'d','p'
11.05,'d','p'
9.53,'d','p'
12.52,'d','p'
10.51,'d','p'
11.1,'d','p'
8.51,'d','p'
10.93,'d','p'
9.82,'d','p'
12.62,'d','p'
9.01,'d','p'
9.47,'d','p'
11.35,'d','p'
11.64,'d','p'
9.61,'d','p'
7.83,'d','p'
10.48,'d','p'
8.99,'d','p'
9.17,'d','p'
10.68,'d','p'
9.59,'d','p'
7,'d','p'
11.46,'d','p'
11.88,'d','p'
10.34,'d','p'
9.51,'d','p'
10.81,'d','p'
7.84,'d','p'
12.4,'d','p'
10.56,'d','p'
10.84,'d','p'
8.59,'d','p'
9.32,'d','p'
8.9,'d','p'
8.22,'d','p'
11,'d','p'
8.33,'d','p'
12.86,'d','p'
11.43,'d','p'
12.47,'d','p'
11.89,'d','p'
10.07,'d','p'
11.45,'d','p'
11.2,'d','p'
8.87,'d','p'
11.08,'d','p'
10.51,'d','p'
11.5,'d','p'
13.89,'d','p'
10.8,'d','p'
9.08,'d','p'
11.61,'d','p'
11.74,'d','p'
9.53,'d','p'
9.87,'d','p'
10.23,'d','p'
12.32,'d','p'
12.3,'d','p'
7.1,'d','p'
9.73,'d','p'
10.43,'d','p'
9,'d','p'
10.44,'d','p'
9.15,'d','p'
9.32,'d','p'
11.43,'d','p'
10.9,'d','p'
10.66,'d','p'
10,'d','p'
10.55,'d','p'
12.1,'d','p'
12.72,'d','p'
10.55,'d','p'
9.59,'d','p'
11.94,'d','p'
9.32,'d','p'
12.66,'d','p'
9.71,'d','p'
11.1,'d','p'
10.76,'d','p'
10.53,'d','p'
10.41,'d','p'
9.84,'d','p'
8.98,'d','p'
8.18,'d','p'
9.65,'d','p'
11.7,'d','p'
11.39,'d','p'
11.64,'d','p'
10.73,'d','p'
9.09,'d','p'
12.14,'d','p'
8.59,'d','p'
10.82,'d','p'
14.38,'d','p'
10.88,'d','p'
8.59,'d','p'
9.66,'d','p'
10.54,'d','p'
10.54,'d','p'
11.57,'d','p'
12,'d','p'
8.51,'d','p'
8.62,'d','p'
10.59,'d','p'
10.85,'d','p'
10.88,'d','p'
11.89,'d','p'
7.27,'d','p'
11.99,'d','p'
11,'d','p'
9.89,'d','p'
8.54,'d','p'
9.54,'d','p'
10.79,'d','p'
11.5,'d','p'
11.12,'d','p'
10.93,'d','p'
12.26,'d','p'
10.13,'d','p'
8.9,'d','p'
9.57,'d','p'
11.34,'d','p'
10.76,'d','p'
10.38,'d','p'
10.64,'d','p'
12.56,'d','p'
9.89,'d','p'
8.31,'d','p'
10.02,'d','p'
9.41,'d','p'
9.27,'d','p'
13.39,'d','p'
12.67,'d','p'
11.32,'d','p'
9.88,'d','p'
12.33,'d','p'
12.73,'d','p'
11.55,'d','p'
10.52,'d','p'
13.28,'d','p'
12.99,'d','p'
9.68,'d','p'
10.06,'d','p'
10.61,'d','p'
10.67,'d','p'
12.75,'d','p'
12.17,'d','p'
10.79,'d','p'
8.62,'d','p'
9.28,'d','p'
10.98,'d','p'
10.53,'d','p'
8.71,'d','p'
9.94,'d','p'
10.28,'d','p'
10.78,'d','p'
10.06,'d','p'
11.9,'d','p'
10.44,'d','p'
10.57,'d','p'
11.92,'d','p'
8.98,'d','p'
9.78,'d','p'
10.55,'d','p'
7.86,'d','p'
8.78,'d','p'
10.35,'d','p'
12.36,'d','p'
10.1,'d','p'
9.91,'d','p'
10.5,'d','p'
12.01,'d','p'
10.25,'d','p'
10.47,'d','p'
12.49,'d','p'
9.46,'d','p'
12.49,'d','p'
8.81,'d','p'
12.13,'d','p'
11.7,'d','p'
10.96,'d','p'
12.75,'d','p'
11.25,'d','p'
10.19,'d','p'
10.27,'d','p'
11.6,'d','p'
8.86,'d','p'
11.32,'d','p'
10.98,'d','p'
9.97,'d','p'
1.47,'h','p'
1.65,'h','p'
1.49,'g','p'
1.52,'g','p'
1.26,'h','p'
1.62,'d','p'
1.31,'g','p'
1.56,'h','p'
1.69,'g','p'
1.51,'d','p'
1.42,'d','p'
1.21,'h','p'
1.47,'h','p'
1.62,'h','p'
1.67,'h','p'
1.59,'h','p'
1.35,'h','p'
1.76,'g','p'
1.74,'d','p'
1.65,'h','p'
1.41,'g','p'
1.51,'h','p'
1.41,'g','p'
1.49,'d','p'
1.54,'g','p'
1.64,'g','p'
1.62,'h','p'
1.78,'g','p'
1.51,'g','p'
1.81,'d','p'
1.44,'g','p'
1.65,'g','p'
1.41,'g','p'
1.74,'d','p'
1.75,'d','p'
1.38,'h','p'
1.74,'h','p'
1.42,'d','p'
1.47,'h','p'
1.56,'g','p'
1.46,'h','p'
1.49,'h','p'
1.86,'d','p'
1.41,'d','p'
1.67,'h','p'
1.33,'d','p'
1.41,'d','p'
1.48,'h','p'
1.37,'d','p'
1.42,'g','p'
1.48,'g','p'
1.4,'g','p'
1.3,'h','p'
1.26,'d','p'
1.52,'g','p'
1.42,'g','p'
1.73,'h','p'
1.35,'d','p'
1.85,'g','p'
1.67,'g','p'
1.27,'h','p'
1.27,'g','p'
1.62,'h','p'
1.68,'g','p'
1.46,'h','p'
1.49,'d','p'
1.45,'h','p'
1.45,'h','p'
1.28,'d','p'
1.8,'h','p'
1.73,'d','p'
1.59,'g','p'
1.54,'d','p'
1.44,'d','p'
1.65,'g','p'
1.56,'g','p'
1.59,'h','p'
1.41,'d','p'
1.58,'h','p'
1.44,'d','p'
1.56,'g','p'
1.61,'h','p'
1.42,'d','p'
1.66,'d','p'
1.42,'h','p'
1.44,'g','p'
1.72,'h','p'
1.43,'g','p'
1.55,'g','p'
1.32,'h','p'
1.36,'d','p'
1.51,'d','p'
1.32,'d','p'
1.44,'g','p'
1.71,'d','p'
1.25,'d','p'
1.18,'d','p'
1.5,'h','p'
1.65,'d','p'
1.64,'h','p'
1.66,'d','p'
1.52,'h','p'
1.52,'g','p'
1.55,'d','p'
1.31,'d','p'
1.3,'d','p'
1.54,'h','p'
1.59,'g','p'
1.5,'d','p'
1.4,'h','p'
1.49,'d','p'
1.45,'d','p'
1.63,'h','p'
1.47,'d','p'
1.3,'g','p'
1.65,'d','p'
1.52,'h','p'
1.46,'g','p'
1.39,'h','p'
1.35,'g','p'
1.72,'g','p'
1.68,'h','p'
1.41,'h','p'
1.51,'d','p'
1.38,'g','p'
1.51,'g','p'
1.61,'d','p'
1.58,'d','p'
1.24,'h','p'
1.87,'h','p'
1.56,'g','p'
1.42,'d','p'
1.47,'g','p'
1.85,'d','p'
1.15,'g','p'
1.49,'g','p'
1.61,'d','p'
1.43,'g','p'
1.48,'d','p'
1.49,'h','p'
1.63,'d','p'
1.42,'d','p'
1.51,'h','p'
1.85,'h','p'
1.51,'h','p'
1.58,'d','p'
1.29,'h','p'
1.51,'g','p'
1.59,'h','p'
1.54,'d','p'
1.5,'d','p'
1.53,'g','p'
1.38,'h','p'
1.67,'d','p'
1.76,'d','p'
1.6,'h','p'
1.4,'d','p'
1.56,'d','p'
1.32,'g','p'
1.38,'h','p'
1.33,'g','p'
1.26,'g','p'
1.54,'h','p'
1.34,'g','p'
1.27,'h','p'
1.51,'h','p'
1.34,'h','p'
1.51,'g','p'
1.45,'h','p'
1.85,'h','p'
1.44,'g','p'
1.51,'d','p'
1.5,'h','p'
1.69,'g','p'
1.29,'h','p'
1.69,'g','p'
1.45,'g','p'
1.6,'h','p'
1.39,'g','p'
1.49,'d','p'
1.45,'d','p'
1.38,'h','p'
1.46,'g','p'
1.33,'h','p'
1.64,'h','p'
1.69,'d','p'
1.52,'g','p'
1.87,'d','p'
1.37,'h','p'
1.55,'g','p'
1.73,'d','p'
1.35,'h','p'
1.3,'d','p'
1.65,'h','p'
1.33,'d','p'
1.49,'h','p'
1.48,'d','p'
1.49,'d','p'
1.64,'d','p'
1.25,'h','p'
1.29,'g','p'
1.44,'h','p'
1.74,'h','p'
1.7,'d','p'
1.69,'d','p'
1.62,'d','p'
1.45,'h','p'
1.57,'d','p'
1.32,'g','p'
2.01,'h','p'
1.7,'g','p'
1.55,'h','p'
1.61,'h','p'
1.66,'g','p'
1.17,'g','p'
1.37,'d','p'
1.68,'d','p'
1.3,'h','p'
1.54,'h','p'
1.48,'h','p'
1.49,'g','p'
1.16,'g','p'
1.39,'d','p'
1.46,'g','p'
1.71,'d','p'
1.71,'g','p'
1.5,'h','p'
1.62,'h','p'
1.46,'h','p'
1.51,'d','p'
1.38,'g','p'
1.41,'g','p'
1.56,'d','p'
1.35,'h','p'
1.36,'g','p'
1.52,'d','p'
1.37,'g','p'
1.6,'g','p'
1.51,'d','p'
1.73,'g','p'
1.27,'g','p'
1.48,'g','p'
1.58,'h','p'
1.3,'g','p'
1.47,'d','p'
1.42,'d','p'
1.11,'d','p'
1.34,'d','p'
1.49,'d','p'
1.27,'h','p'
1.32,'d','p'
1.56,'d','p'
1.55,'h','p'
1.64,'h','p'
1.32,'d','p'
1.48,'d','p'
1.65,'h','p'
1.28,'g','p'
1.27,'d','p'
1.5,'d','p'
1.47,'d','p'
1.31,'h','p'
1.74,'h','p'
1.33,'h','p'
1.47,'h','p'
1.41,'d','p'
1.75,'g','p'
1.52,'g','p'
1.48,'g','p'
1.44,'g','p'
1.41,'g','p'
1.57,'h','p'
1.47,'g','p'
1.42,'g','p'
1.23,'d','p'
1.37,'d','p'
1.39,'h','p'
1.42,'g','p'
1.52,'h','p'
1.59,'d','p'
1.4,'g','p'
1.34,'g','p'
1.38,'h','p'
1.45,'h','p'
1.59,'g','p'
1.83,'d','p'
1.46,'g','p'
1.36,'d','p'
1.54,'h','p'
1.44,'g','p'
1.38,'d','p'
1.68,'g','p'
1.59,'h','p'
1.46,'g','p'
1.38,'h','p'
1.66,'d','p'
0.97,'d','p'
1.46,'d','p'
1.6,'h','p'
1.27,'h','p'
1.62,'d','p'
1.71,'d','p'
1.54,'h','p'
1.64,'d','p'
1.46,'d','p'
1.49,'g','p'
1.28,'h','p'
1.27,'h','p'
1.49,'h','p'
1.6,'h','p'
1.46,'d','p'
1.26,'g','p'
1.67,'h','p'
1.6,'d','p'
1.22,'d','p'
1.5,'g','p'
1.52,'h','p'
1.47,'d','p'
1.74,'h','p'
1.19,'h','p'
1.42,'h','p'
1.77,'g','p'
1.36,'g','p'
1.34,'g','p'
1.76,'h','p'
1.27,'g','p'
1.53,'h','p'
1.43,'d','p'
1.58,'d','p'
1.6,'d','p'
1.5,'d','p'
1.74,'h','p'
1.31,'g','p'
1.55,'g','p'
1.79,'h','p'
1.75,'d','p'
1.69,'h','p'
1.47,'d','p'
1.29,'h','p'
1.3,'h','p'
1.41,'d','p'
1.66,'h','p'
1.52,'g','p'
1.65,'d','p'
1.55,'d','p'
1.67,'g','p'
1.53,'d','p'
1.54,'d','p'
1.6,'h','p'
1.25,'d','p'
1.64,'h','p'
1.57,'d','p'
1.45,'h','p'
8.49,'g','e'
6.08,'m','e'
4.28,'m','e'
5.98,'m','e'
5.61,'m','e'
6.16,'m','e'
5.56,'g','e'
7.23,'m','e'
7.18,'g','e'
7.22,'g','e'
6.18,'m','e'
5.96,'m','e'
7.31,'m','e'
5.13,'m','e'
4.54,'m','e'
4.78,'g','e'
6.34,'m','e'
4.57,'m','e'
4.76,'m','e'
7.11,'g','e'
8.14,'m','e'
8.84,'m','e'
5.82,'m','e'
6.17,'g','e'
8,'m','e'
4.2,'m','e'
8.22,'g','e'
4.93,'m','e'
6.1,'g','e'
6.07,'m','e'
6.8,'m','e'
5.92,'g','e'
6.46,'g','e'
6.42,'g','e'
6.93,'m','e'
6.28,'g','e'
6.28,'m','e'
6.2,'m','e'
8.23,'g','e'
7.1,'m','e'
7.35,'g','e'
5.41,'g','e'
6.37,'m','e'
6.75,'m','e'
7.42,'m','e'
8.01,'g','e'
5.83,'g','e'
4.92,'m','e'
9.09,'g','e'
7.23,'m','e'
6.23,'g','e'
7.33,'m','e'
6.3,'g','e'
6.28,'g','e'
6.1,'m','e'
5.75,'m','e'
8.71,'m','e'
6.26,'g','e'
5.84,'m','e'
6.48,'m','e'
4.91,'g','e'
7.79,'m','e'
7.13,'m','e'
8.9,'m','e'
5.57,'g','e'
7.52,'g','e'
6.28,'m','e'
6.71,'m','e'
3.67,'m','e'
6.31,'g','e'
8.01,'g','e'
6.43,'m','e'
6.16,'g','e'
6.94,'g','e'
4.61,'g','e'
5.96,'g','e'
6.18,'m','e'
7.15,'g','e'
5.7,'m','e'
6.86,'m','e'
6.27,'m','e'
7.73,'m','e'
7.33,'g','e'
5.96,'g','e'
6.75,'g','e'
6.43,'g','e'
8.02,'g','e'
5.95,'m','e'
7.43,'m','e'
6.89,'g','e'
5.98,'m','e'
6.41,'m','e'
6.12,'g','e'
7.02,'g','e'
4.53,'m','e'
5.33,'m','e'
8.65,'g','e'
6.19,'m','e'
7.98,'m','e'
8.17,'m','e'
7,'g','e'
7.92,'g','e'
5.88,'m','e'
8.43,'m','e'
6.06,'g','e'
7.72,'g','e'
5.14,'g','e'
5.94,'m','e'
5.04,'m','e'
6.19,'g','e'
6.42,'m','e'
7.83,'m','e'
6.86,'m','e'
7.23,'g','e'
6.01,'m','e'
8.41,'m','e'
5.84,'m','e'
4.27,'g','e'
3.53,'g','e'
5.74,'m','e'
5.27,'g','e'
6.54,'m','e'
6.55,'g','e'
5.95,'m','e'
4.77,'m','e'
5.85,'g','e'
7.39,'m','e'
7.17,'m','e'
6.86,'m','e'
4.26,'g','e'
5.89,'g','e'
7.62,'m','e'
5.7,'g','e'
8.81,'m','e'
5.68,'g','e'
6.64,'m','e'
8.85,'g','e'
6.57,'g','e'
7.69,'g','e'
8.48,'m','e'
5.11,'g','e'
7.15,'m','e'
7.25,'m','e'
6.84,'m','e'
7.71,'m','e'
6.59,'g','e'
3.79,'g','e'
8.56,'g','e'
5.88,'g','e'
5.47,'g','e'
4.08,'m','e'
6.37,'g','e'
5.68,'m','e'
7.02,'m','e'
7.63,'g','e'
7.56,'m','e'
6.49,'g','e'
6.22,'m','e'
7.55,'g','e'
4.78,'g','e'
9.48,'g','e'
6.2,'g','e'
5.77,'m','e'
6.17,'m','e'
5.71,'m','e'
6.73,'m','e'
7.55,'m','e'
8.41,'m','e'
6.24,'g','e'
6.04,'m','e'
5.07,'m','e'
6.02,'m','e'
7.11,'g','e'
7.93,'g','e'
4.99,'g','e'
7,'m','e'
9.21,'m','e'
8.86,'m','e'
7.3,'m','e'
5.75,'m','e'
5.69,'g','e'
5.96,'g','e'
7.05,'m','e'
5.63,'m','e'
5.18,'g','e'
6.23,'m','e'
5.38,'m','e'
8.34,'m','e'
8.45,'m','e'
5.23,'g','e'
7.83,'g','e'
7.74,'m','e'
7.7,'m','e'
6.41,'g','e'
7.27,'m','e'
5.53,'m','e'
5.98,'m','e'
6.15,'m','e'
3.79,'m','e'
6.52,'m','e'
7.6,'g','e'
6.52,'g','e'
6.44,'g','e'
3.86,'m','e'
5.03,'g','e'
6.66,'g','e'
6.12,'g','e'
6.43,'g','e'
5.53,'m','e'
4.61,'m','e'
7.46,'g','e'
5.32,'m','e'
6.05,'g','e'
6.87,'m','e'
7,'g','e'
4.85,'g','e'
6.78,'m','e'
6.96,'g','e'
7.06,'m','e'
6.39,'g','e'
6.66,'g','e'
6.56,'g','e'
3.22,'g','e'
6.15,'g','e'
5.75,'g','e'
5.89,'g','e'
4.55,'m','e'
5.68,'m','e'
6.46,'g','e'
5.03,'m','e'
5.59,'m','e'
7.79,'m','e'
5.44,'g','e'
6.12,'g','e'
7.38,'m','e'
7,'g','e'
7.07,'g','e'
3.84,'g','e'
5.36,'m','e'
5.98,'g','e'
8.36,'m','e'
7.11,'m','e'
6.57,'m','e'
6.58,'g','e'
6.26,'m','e'
7.53,'m','e'
8.42,'m','e'
5.95,'g','e'
8.84,'g','e'
5.12,'g','e'
7.39,'m','e'
5.91,'g','e'
5.86,'m','e'
4.86,'m','e'
4.94,'g','e'
7.5,'g','e'
4.81,'g','e'
8.97,'m','e'
6.02,'g','e'
7.29,'g','e'
5.71,'m','e'
5.79,'m','e'
6.36,'m','e'
6.71,'g','e'
7.24,'m','e'
3.59,'g','e'
6.47,'g','e'
5.08,'g','e'
6.37,'m','e'
5.35,'m','e'
6.12,'g','e'
7.26,'g','e'
6.07,'g','e'
8.07,'m','e'
6.82,'g','e'
5.78,'g','e'
6.33,'m','e'
4.39,'m','e'
6.26,'m','e'
6.77,'m','e'
8.46,'g','e'
8.2,'g','e'
5.02,'g','e'
4.94,'m','e'
5.53,'g','e'
7.16,'g','e'
6.32,'g','e'
4.92,'m','e'
6.3,'m','e'
6.08,'g','e'
7.53,'m','e'
5.65,'g','e'
5.7,'m','e'
8.3,'m','e'
4.57,'g','e'
7.04,'m','e'
7.06,'g','e'
3.61,'g','e'
6.73,'m','e'
8.15,'g','e'
8.43,'m','e'
2.47,'g','e'
6.24,'g','e'
6.05,'m','e'
5.87,'m','e'
7.13,'m','e'
5.91,'m','e'
6.98,'g','e'
7.76,'g','e'
6.73,'m','e'
4.68,'m','e'
7.18,'m','e'
5.16,'m','e'
4.53,'m','e'
6.1,'m','e'
7.6,'m','e'
8.54,'m','e'
6.9,'g','e'
4.94,'g','e'
4.2,'m','e'
8.48,'m','e'
6.83,'g','e'
4.87,'g','e'
6.76,'m','e'
6.57,'m','e'
5.66,'g','e'
5.82,'m','e'
8.32,'m','e'
6.85,'m','e'
7.47,'g','e'
5.41,'m','e'
6.76,'m','e'
4.98,'g','e'
5.48,'m','e'
5.68,'g','e'
7.76,'g','e'
5.4,'g','e'
5.45,'m','e'
6.72,'m','e'
5.49,'m','e'
6.61,'m','e'
6.95,'g','e'
6.6,'g','e'
4.83,'m','e'
6.38,'g','e'
6.94,'m','e'
7.3,'m','e'
5.95,'m','e'
5.41,'m','e'
5.71,'g','e'
4.35,'g','e'
6.41,'g','e'
6.12,'m','e'
8.76,'w','e'
5.19,'w','e'
7.33,'w','e'
4.83,'w','e'
7.28,'w','e'
7.72,'w','e'
5.95,'w','e'
8.88,'w','e'
6.14,'w','e'
6.75,'w','e'
5.11,'w','e'
6.19,'w','e'
4.56,'w','e'
7.41,'w','e'
5.47,'w','e'
6.78,'w','e'
5.01,'w','e'
5.88,'w','e'
6.81,'w','e'
7.35,'w','e'
6.16,'w','e'
6.86,'w','e'
6.11,'w','e'
6.67,'w','e'
5.36,'w','e'
5.97,'w','e'
4.56,'w','e'
6.75,'w','e'
5.08,'w','e'
6,'w','e'
5.73,'w','e'
5.1,'w','e'
6.49,'w','e'
9.58,'w','e'
8.51,'w','e'
7.11,'w','e'
6.89,'w','e'
7.45,'w','e'
6.65,'w','e'
7.63,'w','e'
8.79,'w','e'
7.18,'w','e'
5.96,'w','e'
6.17,'w','e'
5.79,'w','e'
8.68,'w','e'
8.46,'w','e'
9.95,'w','e'
6.31,'w','e'
5.17,'w','e'
5.63,'w','e'
5.81,'w','e'
7.06,'w','e'
8.17,'w','e'
6.18,'w','e'
6.05,'w','e'
6.71,'w','e'
7.07,'w','e'
6.4,'w','e'
4.72,'w','e'
7.83,'w','e'
6.49,'w','e'
8.52,'w','e'
7.67,'w','e'
8.25,'w','e'
3.94,'w','e'
6.27,'w','e'
6.09,'w','e'
4.38,'w','e'
8.17,'w','e'
7.3,'w','e'
5.74,'w','e'
6.73,'w','e'
7.66,'w','e'
4.31,'w','e'
6.67,'w','e'
6.43,'w','e'
5.54,'w','e'
8.18,'w','e'
3.99,'w','e'
5.53,'w','e'
5.61,'w','e'
6.61,'w','e'
5.68,'w','e'
7.45,'w','e'
6.43,'w','e'
7.26,'w','e'
5.79,'w','e'
6.15,'w','e'
6.9,'w','e'
5.69,'w','e'
6.28,'w','e'
6.44,'w','e'
5.93,'w','e'
6.23,'w','e'
6.86,'w','e'
4.81,'w','e'
5.98,'w','e'
5.62,'w','e'
5.5,'w','e'
8.3,'w','e'
7.72,'w','e'
6.43,'w','e'
6.93,'w','e'
4.68,'w','e'
5.42,'w','e'
5.08,'w','e'
7.94,'w','e'
6.07,'w','e'
7.02,'w','e'
6.79,'w','e'
6.78,'w','e'
8.62,'w','e'
7.59,'w','e'
5.99,'w','e'
6.18,'w','e'
4.5,'w','e'
6.01,'w','e'
5.27,'w','e'
6.01,'w','e'
6.83,'w','e'
8.73,'w','e'
8.78,'w','e'
6.69,'w','e'
7.99,'w','e'
5.77,'w','e'
7.87,'w','e'
5.62,'w','e'
7.22,'w','e'
7.94,'w','e'
6.2,'w','e'
5.64,'w','e'
8.7,'w','e'
7.41,'w','e'
5.52,'w','e'
7.62,'w','e'
6.31,'w','e'
6.28,'w','e'
6.38,'w','e'
7.07,'w','e'
5.48,'w','e'
7.34,'w','e'
6.52,'w','e'
7.29,'w','e'
4.48,'w','e'
6.41,'w','e'
5.36,'w','e'
6.14,'w','e'
6.75,'w','e'
4.82,'w','e'
8.81,'w','e'
6.8,'w','e'
6.55,'w','e'
7.97,'w','e'
4.33,'w','e'
4.47,'w','e'
5.39,'w','e'
7.61,'w','e'
5.61,'w','e'
8.48,'w','e'
7.96,'w','e'
5.73,'w','e'
4.94,'w','e'
7.9,'w','e'
6.84,'w','e'
6.9,'w','e'
7.73,'w','e'
5.47,'w','e'
5.64,'w','e'
6.49,'w','e'
7.21,'w','e'
7.5,'w','e'
6.87,'w','e'
7.36,'w','e'
5.78,'w','e'
6.76,'w','e'
6.89,'w','e'
6.79,'w','e'
5.37,'w','e'
7.13,'w','e'
5.86,'w','e'
7.09,'w','e'
7.22,'w','e'
5.56,'w','e'
5.84,'w','e'
6.34,'w','e'
7.86,'w','e'
8.45,'w','e'
5.36,'w','e'
5.39,'w','e'
5.02,'w','e'
6.13,'w','e'
7.64,'w','e'
7.48,'w','e'
5.93,'w','e'
6.36,'w','e'
6.89,'w','e'
6.81,'w','e'
6.16,'w','e'
7.04,'w','e'
6.67,'w','e'
5.47,'w','e'
5.85,'w','e'
5.67,'w','e'
5.62,'w','e'
8.9,'w','e'
4.5,'w','e'
8.31,'w','e'
6.59,'w','e'
8.75,'w','e'
7.32,'w','e'
5.92,'w','e'
7.46,'w','e'
6.53,'w','e'
5.58,'w','e'
7.54,'w','e'
6.87,'w','e'
8.14,'w','e'
7.09,'w','e'
7.73,'w','e'
6.78,'w','e'
6.89,'w','e'
6.22,'w','e'
6.62,'w','e'
8.51,'w','e'
4.15,'w','e'
5.36,'w','e'
6.23,'w','e'
5.37,'w','e'
8.52,'w','e'
6.42,'w','e'
4.16,'w','e'
6.44,'w','e'
6.53,'w','e'
7.62,'w','e'
7.07,'w','e'
6.29,'w','e'
4.88,'w','e'
6.68,'w','e'
5.48,'w','e'
6.11,'w','e'
7.84,'w','e'
5.71,'w','e'
9.02,'w','e'
4.77,'w','e'
4.22,'w','e'
6.2,'w','e'
7.2,'w','e'
6.09,'w','e'
5.41,'w','e'
5.06,'w','e'
5.68,'w','e'
5.23,'w','e'
6.53,'w','e'
8.43,'w','e'
8.59,'w','e'
5.79,'w','e'
5.09,'w','e'
4.74,'w','e'
7.75,'w','e'
5.77,'w','e'
7.92,'w','e'
4.96,'w','e'
8.47,'w','e'
6.95,'w','e'
8.71,'w','e'
5.21,'w','e'
7.63,'w','e'
5.63,'w','e'
5.08,'w','e'
5.93,'w','e'
6.69,'w','e'
7.12,'w','e'
6.33,'w','e'
7.26,'w','e'
6.1,'w','e'
7.59,'w','e'
8.64,'w','e'
7.02,'w','e'
4.51,'w','e'
6.87,'w','e'
6.01,'w','e'
6.54,'w','e'
3.96,'w','e'
7.14,'w','e'
7.16,'w','e'
7.03,'w','e'
7.4,'w','e'
7.5,'w','e'
5.58,'w','e'
7.93,'w','e'
7.02,'w','e'
5.44,'w','e'
6.47,'w','e'
6.55,'w','e'
4.94,'w','e'
7.68,'w','e'
6.6,'w','e'
6.26,'w','e'
8.39,'w','e'
6.05,'w','e'
5.77,'w','e'
6.65,'w','e'
7.05,'w','e'
5.73,'w','e'
8.61,'w','e'
4.89,'w','e'
6.92,'w','e'
8.06,'w','e'
3.76,'w','e'
6.89,'w','e'
6.44,'w','e'
5.27,'w','e'
5.65,'w','e'
6.16,'w','e'
7.81,'w','e'
6.24,'w','e'
6.85,'w','e'
5.89,'w','e'
5.43,'w','e'
6.56,'w','e'
7.25,'w','e'
6.46,'w','e'
5.57,'w','e'
5.75,'w','e'
5.32,'w','e'
8.62,'w','e'
5.85,'w','e'
6.11,'w','e'
6.45,'w','e'
7.5,'w','e'
6.74,'w','e'
6.48,'w','e'
5.6,'w','e'
9.67,'w','e'
6.03,'w','e'
6.23,'w','e'
7.61,'w','e'
4.96,'w','e'
7.63,'w','e'
7.11,'w','e'
5.78,'w','e'
7.04,'w','e'
7,'w','e'
5.52,'w','e'
6.13,'w','e'
6.37,'w','e'
7.12,'w','e'
6.64,'w','e'
5.79,'w','e'
5.34,'w','e'
7.39,'w','e'
7.65,'w','e'
13.54,'m','e'
14.38,'m','e'
8.61,'m','e'
10.71,'m','e'
11.95,'m','e'
9.29,'m','e'
11.67,'m','e'
14.04,'m','e'
12.01,'m','e'
12.56,'m','e'
11.29,'m','e'
13.38,'m','e'
16.43,'m','e'
14.93,'m','e'
11,'m','e'
8.81,'m','e'
14.26,'m','e'
11.93,'m','e'
13.27,'m','e'
16.23,'m','e'
15.29,'m','e'
11.61,'m','e'
19.59,'m','e'
11.74,'m','e'
16.83,'m','e'
13.04,'m','e'
12.11,'m','e'
9.62,'m','e'
12.72,'m','e'
12.41,'m','e'
10.07,'m','e'
13.33,'m','e'
10.83,'m','e'
15.39,'m','e'
14.57,'m','e'
13.94,'m','e'
13.25,'m','e'
14.99,'m','e'
15.11,'m','e'
10.34,'m','e'
14.39,'m','e'
14.17,'m','e'
14.88,'m','e'
13.41,'m','e'
16.48,'m','e'
8.03,'m','e'
8.32,'m','e'
16.17,'m','e'
13.58,'m','e'
11.96,'m','e'
9.54,'m','e'
12.78,'m','e'
15.1,'m','e'
11.3,'m','e'
13.56,'m','e'
9.26,'m','e'
17.44,'m','e'
10.69,'m','e'
12.81,'m','e'
14.49,'m','e'
10.02,'m','e'
13.67,'m','e'
11.98,'m','e'
15.15,'m','e'
10.43,'m','e'
13.31,'m','e'
10.75,'m','e'
8.73,'m','e'
12.56,'m','e'
11.51,'m','e'
9.93,'m','e'
11.5,'m','e'
18.47,'m','e'
11.88,'m','e'
11.28,'m','e'
12.96,'m','e'
14.81,'m','e'
18,'m','e'
11.97,'m','e'
13.06,'m','e'
11.09,'m','e'
13.02,'m','e'
11.04,'m','e'
7.24,'m','e'
10.41,'m','e'
13.57,'m','e'
13.32,'m','e'
10.96,'m','e'
13.67,'m','e'
8.52,'m','e'
10.04,'m','e'
9.7,'m','e'
9.66,'m','e'
9.3,'m','e'
10.68,'m','e'
7.37,'m','e'
6.17,'m','e'
14.53,'m','e'
9.43,'m','e'
12.2,'m','e'
13.37,'m','e'
9.56,'m','e'
8.15,'m','e'
12.7,'m','e'
12.78,'m','e'
11.72,'m','e'
14.57,'m','e'
12.92,'m','e'
14.53,'m','e'
12.98,'m','e'
14.39,'m','e'
10.93,'m','e'
14.45,'m','e'
15.31,'m','e'
13.69,'m','e'
13.32,'m','e'
15.23,'m','e'
10.44,'m','e'
10.57,'m','e'
13.05,'m','e'
11.4,'m','e'
12.76,'m','e'
10.48,'m','e'
11.28,'m','e'
14.43,'m','e'
14.93,'m','e'
8.35,'m','e'
12.8,'m','e'
13.33,'m','e'
9.11,'m','e'
14.58,'m','e'
11.41,'m','e'
15.17,'m','e'
15.51,'m','e'
9.55,'m','e'
18.51,'m','e'
14.36,'m','e'
12.68,'m','e'
13.32,'m','e'
6.07,'m','e'
12.55,'m','e'
11.09,'m','e'
14.4,'m','e'
14.9,'m','e'
15.83,'m','e'
14.7,'m','e'
12.89,'m','e'
13.07,'m','e'
14.99,'m','e'
11.86,'m','e'
11.15,'m','e'
9.67,'m','e'
9.62,'m','e'
10.46,'m','e'
12.24,'m','e'
13.64,'m','e'
11.3,'m','e'
10.96,'m','e'
14.76,'m','e'
11.93,'m','e'
9.25,'m','e'
10.95,'m','e'
11.32,'m','e'
14.53,'m','e'
14.72,'m','e'
14.04,'m','e'
9.2,'m','e'
10.86,'m','e'
14.27,'m','e'
13.86,'m','e'
12.15,'m','e'
15.1,'m','e'
15.15,'m','e'
11.47,'m','e'
13.49,'m','e'
13.02,'m','e'
10.6,'m','e'
11.03,'m','e'
13.65,'m','e'
10.77,'m','e'
10.83,'m','e'
10.95,'m','e'
12.54,'m','e'
9.28,'m','e'
9.45,'m','e'
7.39,'m','e'
11.19,'m','e'
11.8,'m','e'
11.96,'m','e'
14.66,'m','e'
14.12,'m','e'
10.09,'m','e'
7.75,'m','e'
15.55,'m','e'
8.11,'m','e'
12.73,'m','e'
11.73,'m','e'
8.98,'m','e'
14.28,'m','e'
9.92,'m','e'
14.36,'m','e'
11.44,'m','e'
9.86,'m','e'
18.7,'m','e'
13.27,'m','e'
14.76,'m','e'
13.08,'m','e'
12.69,'m','e'
15.8,'m','e'
7.54,'m','e'
13.28,'m','e'
11.63,'m','e'
11.54,'m','e'
7.38,'m','e'
15.3,'m','e'
14.95,'m','e'
11.17,'m','e'
13.62,'m','e'
13.38,'m','e'
14.76,'m','e'
17.25,'m','e'
15.74,'m','e'
13.69,'m','e'
15.26,'m','e'
9.87,'m','e'
13.29,'m','e'
9.01,'m','e'
12.17,'m','e'
13.57,'m','e'
12.58,'m','e'
14.46,'m','e'
16.22,'m','e'
11.98,'m','e'
11.31,'m','e'
12.17,'m','e'
12.75,'m','e'
10.45,'m','e'
10.95,'m','e'
11.95,'m','e'
14.86,'m','e'
11.15,'m','e'
8.45,'m','e'
13.41,'m','e'
10.88,'m','e'
13.48,'m','e'
13.27,'m','e'
14.11,'m','e'
13.84,'m','e'
11.57,'m','e'
11.65,'m','e'
10.98,'m','e'
14.81,'m','e'
12.9,'m','e'
13.7,'m','e'
14.39,'m','e'
10.76,'m','e'
10.87,'m','e'
9.18,'m','e'
12.84,'m','e'
7.89,'m','e'
11.02,'m','e'
9.05,'m','e'
10.87,'m','e'
13.98,'m','e'
15.88,'m','e'
10.91,'m','e'
13.75,'m','e'
12.75,'m','e'
9.82,'m','e'
13.69,'m','e'
16,'m','e'
12.03,'m','e'
11.53,'m','e'
11.26,'m','e'
12.07,'m','e'
9.81,'m','e'
13.3,'m','e'
14.08,'m','e'
13.06,'m','e'
14.99,'m','e'
9.55,'m','e'
9.79,'m','e'
11.22,'m','e'
13.58,'m','e'
12.71,'m','e'
8,'m','e'
8.45,'m','e'
12.04,'m','e'
16.39,'m','e'
9.95,'m','e'
8.24,'m','e'
12.52,'m','e'
11.18,'m','e'
11.59,'m','e'
12.96,'m','e'
12.27,'m','e'
11.96,'m','e'
10.4,'m','e'
15.1,'m','e'
11.74,'m','e'
14.59,'m','e'
13.03,'m','e'
13.59,'m','e'
13.05,'m','e'
11.07,'m','e'
13.13,'m','e'
13.05,'m','e'
16.67,'m','e'
11.27,'m','e'
13.55,'m','e'
10.39,'m','e'
9.94,'m','e'
13.09,'m','e'
12.12,'m','e'
14.95,'m','e'
14.74,'m','e'
12.87,'m','e'
15.6,'m','e'
11.23,'m','e'
10.83,'m','e'
15.4,'m','e'
12.12,'m','e'
16.67,'m','e'
10.55,'m','e'
13.17,'m','e'
9.34,'m','e'
14.31,'m','e'
12.63,'m','e'
14.18,'m','e'
13.6,'m','e'
14.9,'m','e'
11.95,'m','e'
12.15,'m','e'
11.91,'m','e'
10.1,'m','e'
13.29,'m','e'
12.04,'m','e'
8.8,'m','e'
13.52,'m','e'
14.76,'m','e'
12.22,'m','e'
8.37,'m','e'
10.82,'m','e'
13.05,'m','e'
15.72,'m','e'
12.73,'m','e'
14.03,'m','e'
14.03,'m','e'
11.23,'m','e'
14.06,'m','e'
8.87,'m','e'
13.53,'m','e'
11.82,'m','e'
7.84,'d','p'
7.73,'d','p'
8.5,'g','p'
7.77,'g','p'
5.69,'d','p'
5.91,'g','p'
7.68,'g','p'
7.88,'g','p'
6.31,'d','p'
8.24,'g','p'
8.02,'g','p'
7.44,'d','p'
7.08,'g','p'
7.1,'d','p'
7.59,'g','p'
8.65,'d','p'
7.45,'d','p'
7.4,'d','p'
9.52,'g','p'
7.53,'g','p'
8.09,'d','p'
8.23,'g','p'
7.55,'g','p'
8.13,'d','p'
7.84,'d','p'
8.16,'d','p'
7.68,'g','p'
7.88,'d','p'
7.03,'d','p'
7.41,'g','p'
7.51,'d','p'
7.2,'g','p'
5.73,'g','p'
7.15,'d','p'
8.07,'g','p'
7.65,'d','p'
7.26,'d','p'
8.11,'d','p'
7.77,'g','p'
8.35,'g','p'
7.07,'g','p'
9.21,'g','p'
8.71,'d','p'
8.74,'g','p'
7.55,'d','p'
7.41,'g','p'
8.23,'g','p'
8.13,'g','p'
8.22,'g','p'
7.87,'d','p'
8.58,'g','p'
7.68,'g','p'
7.82,'d','p'
7.81,'d','p'
7.22,'d','p'
6.83,'g','p'
7.72,'g','p'
7.12,'d','p'
7.21,'d','p'
8.62,'d','p'
7.25,'d','p'
7.6,'d','p'
7.71,'g','p'
8.68,'g','p'
6.8,'d','p'
7.28,'g','p'
6.92,'g','p'
6.84,'g','p'
7.14,'d','p'
6.92,'d','p'
7.7,'g','p'
7.79,'d','p'
8.5,'d','p'
5.58,'d','p'
6.37,'g','p'
7.75,'g','p'
7.68,'d','p'
7.67,'d','p'
8.29,'d','p'
8.2,'d','p'
6.58,'g','p'
8.45,'d','p'
7.61,'g','p'
6.18,'g','p'
8.3,'d','p'
6.39,'g','p'
7.14,'g','p'
7.11,'g','p'
8.22,'g','p'
6.58,'d','p'
5.59,'d','p'
7.43,'g','p'
8.23,'d','p'
6.67,'g','p'
7.35,'d','p'
5.68,'d','p'
6.79,'g','p'
8.52,'g','p'
7.86,'g','p'
9.04,'g','p'
7.68,'d','p'
9.34,'g','p'
6.69,'g','p'
7.19,'g','p'
7.78,'d','p'
5.87,'g','p'
8.31,'d','p'
6.33,'g','p'
8.08,'g','p'
8.04,'d','p'
7.36,'g','p'
5.57,'g','p'
6.94,'d','p'
6.68,'d','p'
7.79,'d','p'
7.07,'g','p'
8.05,'g','p'
8.87,'g','p'
7.02,'g','p'
7.21,'g','p'
7.02,'g','p'
6.6,'d','p'
7.6,'d','p'
6.11,'d','p'
7,'g','p'
7.48,'d','p'
7.81,'d','p'
6.19,'d','p'
7.47,'g','p'
7.64,'g','p'
8.34,'g','p'
7.42,'g','p'
7.53,'d','p'
8.34,'g','p'
6.56,'d','p'
8.11,'d','p'
6.82,'g','p'
6.82,'d','p'
7.81,'g','p'
8.97,'d','p'
7.66,'g','p'
8.14,'g','p'
8.06,'d','p'
8.34,'d','p'
7.43,'g','p'
7.79,'g','p'
6.86,'g','p'
6.86,'g','p'
7.16,'d','p'
6.51,'d','p'
7,'d','p'
8.03,'g','p'
8.72,'g','p'
7.03,'g','p'
9.17,'d','p'
8.54,'g','p'
9.16,'d','p'
7.94,'g','p'
6.69,'d','p'
8.92,'g','p'
7.33,'g','p'
7.54,'g','p'
7.27,'d','p'
7.14,'d','p'
8.49,'g','p'
7.1,'d','p'
8.38,'g','p'
7.55,'g','p'
6.88,'d','p'
8.22,'d','p'
6.96,'g','p'
7.55,'d','p'
6.93,'d','p'
7.25,'g','p'
7.06,'g','p'
6.47,'d','p'
7.01,'d','p'
7.4,'d','p'
5.82,'g','p'
7.53,'g','p'
9.26,'g','p'
6.63,'d','p'
8.15,'d','p'
7.9,'g','p'
7.05,'g','p'
8.12,'d','p'
7.16,'g','p'
8.57,'d','p'
8.33,'g','p'
7.28,'g','p'
8.51,'g','p'
8.98,'g','p'
6.89,'d','p'
7.49,'g','p'
6.32,'d','p'
9.27,'g','p'
7.77,'d','p'
9.22,'g','p'
7.1,'g','p'
6.89,'g','p'
8.02,'d','p'
6,'g','p'
8.15,'d','p'
7.96,'g','p'
6.84,'g','p'
6.52,'d','p'
6.69,'d','p'
7.24,'g','p'
6.68,'g','p'
7.5,'g','p'
7.39,'g','p'
7.48,'d','p'
6.55,'g','p'
5.89,'d','p'
5.92,'g','p'
7.9,'g','p'
6.58,'g','p'
7.91,'g','p'
6.48,'d','p'
7.81,'d','p'
7.94,'g','p'
8.83,'d','p'
6.7,'d','p'
7.11,'g','p'
7.4,'g','p'
7.12,'d','p'
7.41,'d','p'
7.4,'g','p'
7.54,'g','p'
5.28,'g','p'
6.41,'d','p'
6.89,'g','p'
7.09,'g','p'
7,'g','p'
6.96,'d','p'
8.24,'g','p'
9.74,'d','p'
6.99,'g','p'
7.44,'d','p'
8.31,'d','p'
7.4,'g','p'
7.45,'d','p'
8.83,'g','p'
8.13,'g','p'
5.85,'g','p'
6.71,'g','p'
7.88,'d','p'
8.66,'g','p'
7.93,'g','p'
5.88,'g','p'
7.79,'g','p'
7.32,'g','p'
7.38,'d','p'
7.88,'d','p'
7.79,'d','p'
9.15,'d','p'
5.74,'g','p'
7.25,'g','p'
9.25,'d','p'
8.22,'g','p'
8.91,'g','p'
9.56,'g','p'
8.31,'d','p'
8.16,'g','p'
7.61,'g','p'
7.05,'d','p'
7.49,'g','p'
8.88,'g','p'
7.85,'g','p'
7.97,'d','p'
7.08,'d','p'
6.13,'d','p'
8.1,'g','p'
7.63,'g','p'
7.66,'g','p'
8.35,'d','p'
7.16,'g','p'
7.99,'d','p'
7.31,'d','p'
5.38,'d','p'
5.47,'d','p'
7.32,'g','p'
5.96,'g','p'
7.68,'g','p'
5.58,'g','p'
7.12,'d','p'
8.08,'g','p'
7.75,'d','p'
8.19,'g','p'
7.36,'g','p'
7.79,'d','p'
7.65,'d','p'
8.15,'g','p'
7.49,'g','p'
8.54,'g','p'
7.32,'g','p'
8.3,'d','p'
7.54,'g','p'
7.43,'d','p'
6.73,'g','p'
6.76,'g','p'
8.6,'g','p'
8.38,'g','p'
7.13,'d','p'
5.99,'d','p'
7.59,'d','p'
9.33,'d','p'
7.15,'g','p'
9.17,'g','p'
8.02,'g','p'
8.89,'g','p'
5.82,'d','p'
7.18,'d','p'
7.75,'g','p'
7.3,'g','p'
7.4,'g','p'
7.45,'g','p'
7.47,'g','p'
6.97,'g','p'
7.17,'d','p'
7.86,'g','p'
8.34,'g','p'
7.29,'d','p'
7.41,'d','p'
7.57,'d','p'
5.78,'g','p'
8.28,'d','p'
8.33,'g','p'
8.62,'d','p'
7,'g','p'
6.99,'g','p'
6.56,'g','p'
7.08,'g','p'
7.22,'g','p'
8.53,'g','p'
7.59,'d','p'
7.34,'d','p'
5.89,'d','p'
7.32,'g','p'
7.31,'g','p'
7.57,'d','p'
7.93,'g','p'
8.78,'g','p'
6.97,'g','p'
7.19,'g','p'
6.02,'g','p'
9.38,'d','p'
7.84,'g','p'
7.35,'g','p'
8.59,'d','p'
5.12,'g','p'
6.75,'g','p'
6.17,'g','p'
10.78,'d','e'
11.34,'d','e'
10.16,'l','e'
11.65,'l','e'
11.03,'d','e'
9.49,'d','e'
9.94,'l','e'
10.02,'l','e'
10.29,'l','e'
10.44,'d','e'
9.59,'d','e'
10.27,'l','e'
9.74,'d','e'
10.15,'l','e'
9.5,'d','e'
9.91,'d','e'
8.28,'d','e'
9.46,'l','e'
10.98,'d','e'
10.9,'l','e'
11.2,'l','e'
10.66,'d','e'
10.07,'d','e'
9.54,'l','e'
9.34,'l','e'
10.5,'l','e'
10.88,'d','e'
11.65,'d','e'
10.48,'l','e'
10.05,'d','e'
9.62,'l','e'
11.17,'l','e'
11.12,'d','e'
10.77,'d','e'
9.92,'d','e'
9.9,'d','e'
10.24,'l','e'
9.64,'l','e'
8.93,'d','e'
9.82,'l','e'
10.11,'l','e'
9.56,'d','e'
9.88,'d','e'
9.17,'d','e'
10.18,'l','e'
10.33,'l','e'
11.13,'l','e'
9.31,'d','e'
10.48,'l','e'
9.58,'l','e'
10.77,'d','e'
9.47,'l','e'
10.38,'d','e'
10.16,'l','e'
10.75,'l','e'
9.6,'l','e'
9.55,'l','e'
9.5,'l','e'
9.66,'d','e'
9.77,'d','e'
9.32,'d','e'
9.61,'l','e'
9.82,'l','e'
10.23,'l','e'
9.91,'d','e'
10.16,'d','e'
10.12,'d','e'
10.44,'l','e'
10.38,'l','e'
9.45,'l','e'
10.19,'d','e'
9.68,'l','e'
10.18,'l','e'
9.13,'d','e'
9.55,'l','e'
9.98,'l','e'
9.43,'d','e'
10.24,'l','e'
9.37,'d','e'
10.41,'l','e'
9.85,'l','e'
8.98,'l','e'
10.04,'l','e'
9.66,'d','e'
10.49,'l','e'
10.23,'d','e'
9.44,'l','e'
10,'d','e'
8.82,'d','e'
11.14,'d','e'
9.43,'l','e'
10.94,'l','e'
9.01,'d','e'
10.58,'l','e'
11.23,'d','e'
9,'d','e'
10.15,'l','e'
8.8,'d','e'
9.13,'d','e'
10.83,'d','e'
10.22,'l','e'
9.86,'d','e'
10.69,'d','e'
9.49,'d','e'
11.19,'d','e'
10.5,'l','e'
8.4,'d','e'
10.84,'d','e'
9.87,'l','e'
9.63,'l','e'
11.57,'d','e'
10.13,'d','e'
10.45,'d','e'
10.2,'l','e'
11.08,'l','e'
9.81,'d','e'
10.47,'d','e'
9.63,'d','e'
10.25,'d','e'
8.93,'d','e'
9.19,'d','e'
9.21,'d','e'
9.87,'l','e'
9.48,'d','e'
9.02,'d','e'
10.52,'l','e'
9.47,'l','e'
10.89,'d','e'
9.3,'d','e'
9.37,'d','e'
10.03,'d','e'
10.56,'l','e'
10.36,'d','e'
10.46,'l','e'
9.34,'d','e'
10.2,'l','e'
9.74,'l','e'
9.58,'l','e'
9.98,'d','e'
10.29,'d','e'
10.34,'d','e'
9.5,'l','e'
9.53,'l','e'
9.57,'d','e'
10.28,'d','e'
10.78,'d','e'
10.29,'l','e'
8.54,'d','e'
9.99,'d','e'
10.09,'d','e'
9.94,'d','e'
9.58,'d','e'
9.51,'d','e'
9,'d','e'
9.71,'l','e'
9.84,'d','e'
10.01,'d','e'
8.38,'d','e'
9.7,'l','e'
10.86,'l','e'
11.07,'l','e'
10.38,'d','e'
9.92,'d','e'
9.79,'d','e'
10.29,'d','e'
10.27,'d','e'
10.34,'l','e'
11.06,'l','e'
9.91,'d','e'
9.62,'d','e'
10.36,'l','e'
9.49,'l','e'
9.57,'l','e'
9.86,'d','e'
9.74,'l','e'
10.26,'d','e'
9.5,'l','e'
10.42,'d','e'
10.2,'d','e'
9.48,'l','e'
10.66,'l','e'
9.24,'d','e'
10.91,'d','e'
10.52,'l','e'
9.25,'l','e'
10.58,'d','e'
10.04,'l','e'
10.24,'l','e'
10.94,'d','e'
10.14,'d','e'
10.3,'d','e'
11.36,'d','e'
10,'d','e'
10.61,'l','e'
10.25,'l','e'
11.43,'d','e'
9.45,'d','e'
10.51,'d','e'
8.99,'l','e'
10.57,'l','e'
10.37,'d','e'
11.1,'d','e'
9.61,'l','e'
10.5,'d','e'
10.05,'d','e'
10.25,'d','e'
10.28,'d','e'
10.36,'d','e'
9.5,'d','e'
10.16,'d','e'
10.66,'l','e'
10.87,'l','e'
9.75,'l','e'
9.94,'d','e'
8.98,'l','e'
11.67,'d','e'
9.21,'l','e'
9.36,'l','e'
9.85,'d','e'
9.88,'l','e'
10.13,'d','e'
10.44,'d','e'
9.76,'l','e'
10.91,'d','e'
9.64,'d','e'
9.28,'d','e'
8.91,'l','e'
10.19,'l','e'
10.51,'l','e'
9.84,'d','e'
9.43,'l','e'
10.84,'d','e'
10.75,'d','e'
10.15,'l','e'
9.26,'d','e'
10.45,'l','e'
8.76,'d','e'
10.88,'l','e'
9.43,'l','e'
9.49,'l','e'
10.21,'l','e'
8.45,'d','e'
9.46,'d','e'
9.44,'d','e'
10.53,'l','e'
9.64,'l','e'
10.24,'l','e'
10.48,'l','e'
10.53,'l','e'
8.42,'l','e'
10.82,'l','e'
10.05,'d','e'
11.01,'d','e'
10.33,'d','e'
10.25,'l','e'
10.05,'l','e'
9.47,'d','e'
9.43,'l','e'
10.31,'d','e'
10.55,'l','e'
10.11,'d','e'
9.71,'l','e'
8.81,'l','e'
9.88,'l','e'
10.14,'l','e'
10.07,'l','e'
8.65,'l','e'
9.71,'l','e'
8.92,'d','e'
9.17,'d','e'
9.62,'l','e'
10.14,'l','e'
10.7,'d','e'
10.07,'d','e'
9.9,'d','e'
10.36,'d','e'
10.76,'l','e'
10.54,'d','e'
9.5,'l','e'
8.77,'l','e'
10.15,'l','e'
10.9,'l','e'
10.34,'d','e'
9.21,'l','e'
10.89,'l','e'
9.87,'l','e'
10.1,'d','e'
10.14,'d','e'
9.91,'l','e'
9.17,'l','e'
9.75,'l','e'
8.92,'l','e'
10.73,'d','e'
10.23,'d','e'
11.16,'l','e'
11.03,'l','e'
9.24,'l','e'
10.19,'d','e'
9.95,'d','e'
9.89,'d','e'
10.48,'d','e'
10.6,'d','e'
9.68,'d','e'
9.52,'l','e'
11.08,'l','e'
10.13,'d','e'
10.37,'d','e'
9.63,'d','e'
9.04,'d','e'
8.82,'l','e'
10.55,'d','e'
9.93,'l','e'
8.9,'d','e'
9.88,'d','e'
10.04,'l','e'
10.92,'d','e'
10.76,'d','e'
9.89,'d','e'
9.31,'d','e'
9.72,'d','e'
10.39,'d','e'
9.01,'l','e'
9.22,'d','e'
10.03,'d','e'
10.24,'d','e'
12.25,'d','e'
11.73,'d','e'
9.38,'d','e'
9.79,'l','e'
10.17,'d','e'
10.47,'d','e'
9.49,'d','e'
9.44,'d','e'
9.68,'l','e'
10.41,'l','e'
9.91,'l','e'
9.75,'d','e'
9.31,'d','e'
9.84,'d','e'
9.14,'d','e'
9,'d','e'
9.97,'d','e'
10.58,'l','e'
10.24,'d','e'
9.77,'l','e'
10.65,'d','e'
9.61,'l','e'
11.2,'d','e'
10.03,'l','e'
10.07,'d','e'
8.56,'l','e'
9.02,'l','e'
10.58,'d','e'
9.23,'d','e'
8.97,'g','e'
9.2,'u','e'
11.17,'g','e'
8.11,'g','e'
10.32,'g','e'
10.08,'d','e'
9.95,'d','e'
11.68,'g','e'
11.58,'u','e'
9.21,'d','e'
9.89,'d','e'
10.44,'u','e'
11.62,'d','e'
8.62,'g','e'
9.99,'u','e'
13.82,'u','e'
8.72,'g','e'
7.41,'d','e'
11.82,'d','e'
11.46,'u','e'
8.79,'u','e'
11.51,'g','e'
10.01,'d','e'
10.12,'d','e'
8.99,'d','e'
9.15,'u','e'
10.52,'d','e'
9.39,'d','e'
13.21,'u','e'
11.28,'u','e'
9.84,'d','e'
10.93,'d','e'
11.08,'u','e'
11.77,'d','e'
9.11,'u','e'
11.89,'d','e'
10.07,'g','e'
9.26,'d','e'
7.69,'g','e'
10.67,'u','e'
11.33,'u','e'
10.8,'u','e'
10.61,'d','e'
10.31,'d','e'
8.42,'g','e'
9.47,'u','e'
9.71,'u','e'
9.68,'u','e'
9.75,'u','e'
10.87,'u','e'
10.77,'g','e'
10.48,'g','e'
9.09,'d','e'
10.98,'g','e'
8.8,'u','e'
7.41,'d','e'
10.58,'g','e'
7.96,'u','e'
9.23,'g','e'
10.52,'u','e'
11.67,'u','e'
6.72,'u','e'
9.51,'d','e'
11.44,'d','e'
10.79,'u','e'
6.7,'d','e'
11.58,'g','e'
8.32,'u','e'
8.61,'d','e'
10.54,'d','e'
10.61,'d','e'
10.49,'u','e'
10.68,'g','e'
7.48,'d','e'
11.26,'g','e'
7.66,'g','e'
8.31,'d','e'
9.62,'g','e'
10.57,'u','e'
10.35,'d','e'
10.15,'u','e'
11.37,'g','e'
8.63,'d','e'
11.61,'d','e'
9.76,'g','e'
11.71,'g','e'
5.68,'u','e'
9.03,'d','e'
8.42,'g','e'
10.72,'u','e'
10.38,'g','e'
9.71,'u','e'
8.76,'d','e'
10.56,'d','e'
9.28,'g','e'
9.18,'g','e'
9.95,'d','e'
10.33,'d','e'
10.03,'d','e'
11.44,'u','e'
10.76,'d','e'
14.75,'g','e'
9.65,'d','e'
12.32,'d','e'
8.66,'d','e'
12.25,'d','e'
8.71,'d','e'
10.23,'g','e'
12.64,'g','e'
9.3,'g','e'
10.23,'d','e'
7.59,'d','e'
11.52,'u','e'
9.16,'u','e'
9.59,'g','e'
11.1,'g','e'
6.32,'u','e'
10.49,'u','e'
9.93,'d','e'
10.02,'u','e'
8.27,'d','e'
11.28,'g','e'
10.26,'d','e'
9.34,'g','e'
6.13,'d','e'
12.12,'g','e'
8.75,'u','e'
10.58,'u','e'
9.54,'g','e'
9.29,'g','e'
10.05,'g','e'
13.53,'d','e'
10.83,'u','e'
13.16,'d','e'
6.03,'d','e'
7.55,'g','e'
8.91,'d','e'
10,'d','e'
10.04,'d','e'
8.49,'d','e'
8.93,'g','e'
6.27,'u','e'
10.3,'u','e'
7.7,'u','e'
11.08,'u','e'
8.3,'u','e'
13.16,'d','e'
11.46,'g','e'
10.07,'g','e'
10.57,'g','e'
11.89,'u','e'
7.78,'u','e'
11.58,'d','e'
8.39,'d','e'
10.6,'u','e'
11.92,'g','e'
13.01,'u','e'
8.75,'u','e'
9.6,'u','e'
11.78,'g','e'
12.74,'d','e'
11.19,'g','e'
9.82,'d','e'
8.13,'u','e'
9.43,'d','e'
8.18,'u','e'
9.84,'g','e'
6.52,'g','e'
10.12,'u','e'
9.31,'g','e'
9.57,'u','e'
9.63,'d','e'
10.6,'d','e'
9.2,'u','e'
10.47,'u','e'
9.78,'d','e'
9,'g','e'
9.3,'d','e'
9.95,'d','e'
8.71,'d','e'
9.66,'g','e'
11.24,'g','e'
11.68,'g','e'
12.27,'g','e'
10,'d','e'
8.87,'u','e'
10.42,'g','e'
10.97,'u','e'
9.54,'d','e'
11.92,'g','e'
8.9,'g','e'
10.09,'d','e'
11.48,'u','e'
8.68,'g','e'
6.27,'u','e'
11.78,'d','e'
10.1,'g','e'
10.72,'d','e'
9.88,'u','e'
8.44,'d','e'
10.37,'g','e'
9.38,'u','e'
10.77,'d','e'
10.6,'d','e'
11.66,'g','e'
11.03,'g','e'
12.28,'u','e'
9.75,'g','e'
9.77,'g','e'
10.11,'g','e'
7.79,'u','e'
9.2,'g','e'
12.28,'g','e'
5.11,'g','e'
10.52,'u','e'
10.4,'u','e'
8.97,'g','e'
14.46,'u','e'
12.99,'d','e'
9.7,'g','e'
10.77,'g','e'
12.6,'d','e'
7.93,'d','e'
9.96,'u','e'
9.77,'u','e'
10.33,'u','e'
12.53,'u','e'
12.65,'g','e'
12.91,'d','e'
6.54,'g','e'
10.44,'g','e'
8.98,'g','e'
9.23,'d','e'
10.36,'u','e'
7.76,'u','e'
7.77,'u','e'
12.76,'d','e'
11.55,'d','e'
7,'d','e'
13.32,'g','e'
8.85,'d','e'
7.12,'g','e'
9.15,'g','e'
8.32,'d','e'
12.28,'g','e'
8.24,'u','e'
10.85,'g','e'
8.65,'g','e'
9.03,'d','e'
8.89,'d','e'
8.55,'u','e'
11.32,'g','e'
7.81,'g','e'
10.91,'g','e'
9.04,'g','e'
7.74,'g','e'
8.53,'g','e'
12.53,'d','e'
8.41,'u','e'
10.7,'g','e'
10.9,'u','e'
12.31,'g','e'
10.92,'g','e'
10.84,'u','e'
10.33,'d','e'
12.16,'u','e'
11.96,'g','e'
7.43,'u','e'
8.66,'u','e'
9.29,'g','e'
7.81,'u','e'
7.61,'d','e'
6.82,'u','e'
8.16,'g','e'
8.05,'d','e'
11.78,'g','e'
11.68,'d','e'
8.92,'d','e'
10.48,'g','e'
9.44,'u','e'
10.27,'g','e'
11.36,'d','e'
9.53,'d','e'
10.45,'d','e'
10.25,'g','e'
8.78,'g','e'
9.13,'d','e'
6.38,'g','e'
11.87,'g','e'
11.72,'u','e'
8.15,'d','e'
10.84,'g','e'
12.32,'g','e'
12.29,'g','e'
7.7,'g','e'
10.03,'g','e'
9.49,'u','e'
9.88,'u','e'
7.11,'u','e'
9.34,'d','e'
11.04,'g','e'
9.88,'u','e'
9.12,'d','e'
9.28,'u','e'
12.31,'d','e'
9.47,'g','e'
8.92,'g','e'
10.42,'u','e'
11.51,'u','e'
9.53,'g','e'
11.35,'u','e'
10.53,'u','e'
9.98,'u','e'
8.76,'u','e'
10.21,'u','e'
11.97,'g','e'
9.86,'d','e'
10.19,'d','e'
10.34,'u','e'
9.22,'g','e'
11.24,'g','e'
11.77,'u','e'
8.77,'u','e'
8.73,'d','e'
8.67,'d','e'
10.47,'u','e'
9.85,'u','e'
11.62,'d','e'
10.57,'u','e'
7.33,'g','e'
8.24,'d','e'
9.14,'u','e'
6.09,'u','e'
8.83,'g','e'
9.63,'d','e'
11.93,'g','e'
8.41,'d','e'
9.14,'d','e'
8.23,'u','e'
10.78,'u','e'
10.07,'d','e'
8.7,'u','e'
11.67,'d','e'
10.68,'u','e'
11.53,'g','e'
11.95,'u','e'
8.29,'d','e'
9.55,'d','e'
4.04,'g','e'
9.39,'g','e'
6.73,'d','e'
8.68,'u','e'
6.41,'d','p'
5.08,'d','p'
5.97,'d','p'
5.37,'g','p'
5.66,'d','p'
6.36,'g','p'
6.01,'d','p'
6.45,'g','p'
6.74,'g','p'
7.32,'g','p'
4.61,'g','p'
6.34,'d','p'
6.14,'g','p'
5.79,'d','p'
6.08,'d','p'
5.35,'g','p'
6.5,'d','p'
6.33,'d','p'
5.72,'d','p'
5.12,'d','p'
4.81,'g','p'
7.36,'d','p'
5.44,'g','p'
5.81,'g','p'
5.27,'d','p'
5.6,'d','p'
5.1,'d','p'
5.5,'g','p'
6.9,'d','p'
6.88,'g','p'
6.68,'g','p'
5.83,'d','p'
5.75,'d','p'
5.89,'g','p'
6.69,'g','p'
5.89,'g','p'
5.46,'d','p'
5.48,'g','p'
7.01,'g','p'
5.3,'d','p'
5.82,'g','p'
6.23,'g','p'
6.37,'g','p'
6.21,'g','p'
6.01,'g','p'
5.3,'g','p'
5.31,'d','p'
6.28,'d','p'
6.87,'d','p'
5.06,'d','p'
6.55,'g','p'
5.68,'g','p'
5.9,'g','p'
5.83,'g','p'
5.93,'d','p'
6.67,'d','p'
6.28,'d','p'
6.4,'g','p'
5.43,'g','p'
5.31,'g','p'
5.41,'d','p'
5.68,'d','p'
5.3,'g','p'
5.63,'g','p'
4.66,'d','p'
6.76,'d','p'
5.89,'d','p'
6.56,'d','p'
5.93,'g','p'
5.76,'d','p'
6.27,'g','p'
5.71,'d','p'
6.24,'g','p'
6.16,'d','p'
6.54,'g','p'
5.08,'g','p'
6,'g','p'
6.51,'g','p'
5.13,'d','p'
7.16,'g','p'
6.2,'d','p'
5.86,'g','p'
5.99,'d','p'
4.88,'d','p'
4.88,'d','p'
5.63,'g','p'
6.22,'g','p'
5.62,'g','p'
6.34,'g','p'
6.29,'d','p'
4.99,'d','p'
5.63,'d','p'
6.15,'d','p'
6.21,'d','p'
5.67,'g','p'
6.18,'d','p'
6.24,'d','p'
6.69,'g','p'
6.07,'g','p'
7.24,'g','p'
5.42,'d','p'
5.7,'d','p'
5.02,'g','p'
5.8,'d','p'
4.81,'d','p'
5.63,'g','p'
6.05,'g','p'
5.7,'g','p'
5.16,'d','p'
6.03,'d','p'
6.57,'d','p'
5.22,'d','p'
6.08,'g','p'
5.92,'g','p'
6.57,'g','p'
6.74,'d','p'
5.33,'d','p'
6.11,'d','p'
5.56,'d','p'
4.73,'d','p'
4.75,'g','p'
5.91,'d','p'
6.2,'d','p'
5.24,'d','p'
5.47,'d','p'
6.32,'d','p'
5.37,'g','p'
6.37,'d','p'
5.88,'g','p'
6.88,'g','p'
6.09,'g','p'
6.33,'d','p'
6.45,'g','p'
6.35,'g','p'
6.78,'g','p'
5.94,'d','p'
5.97,'g','p'
7.19,'d','p'
6.57,'g','p'
6.82,'g','p'
5.51,'d','p'
5.4,'d','p'
5.38,'d','p'
6.46,'d','p'
5.67,'g','p'
6.15,'g','p'
5.28,'g','p'
5.7,'d','p'
4.78,'d','p'
5.54,'g','p'
6.08,'g','p'
6,'d','p'
5.67,'g','p'
4.6,'g','p'
6.35,'d','p'
5.73,'g','p'
6.09,'d','p'
5.88,'g','p'
5.76,'g','p'
6.07,'g','p'
6.51,'d','p'
6.93,'g','p'
7.02,'g','p'
6.05,'g','p'
5.81,'d','p'
5.52,'g','p'
5.21,'g','p'
5.74,'d','p'
5.2,'d','p'
7.06,'d','p'
5.02,'g','p'
5.68,'g','p'
4.78,'d','p'
6.26,'g','p'
7.28,'g','p'
6.76,'g','p'
5.36,'g','p'
6.56,'d','p'
6.01,'g','p'
6.8,'g','p'
6.36,'d','p'
5.17,'g','p'
5.33,'d','p'
5.97,'g','p'
6.15,'d','p'
5.8,'d','p'
7.02,'d','p'
5.78,'g','p'
5.37,'g','p'
6.29,'g','p'
5.61,'d','p'
5.11,'g','p'
6.66,'g','p'
5.16,'g','p'
5.72,'d','p'
5.59,'g','p'
7.33,'d','p'
6.07,'d','p'
5.69,'g','p'
6.52,'g','p'
5.19,'g','p'
6.58,'g','p'
6.18,'d','p'
4.88,'d','p'
5.08,'g','p'
5.32,'d','p'
6.26,'d','p'
5.99,'g','p'
6.15,'d','p'
6.1,'g','p'
6.95,'d','p'
5.46,'d','p'
6.2,'g','p'
6.72,'g','p'
5.5,'g','p'
5.99,'g','p'
5.95,'d','p'
5.65,'g','p'
4.83,'g','p'
6.87,'g','p'
6.12,'g','p'
6.93,'g','p'
6.4,'d','p'
7,'g','p'
5.1,'d','p'
6.41,'d','p'
5.48,'g','p'
6.15,'d','p'
6.07,'d','p'
6.66,'d','p'
5.61,'d','p'
6.16,'d','p'
5.69,'d','p'
4.55,'g','p'
7.24,'g','p'
5.32,'g','p'
6.64,'d','p'
6.3,'g','p'
5.66,'g','p'
5.2,'d','p'
5.99,'d','p'
5.72,'d','p'
5.99,'d','p'
7.09,'d','p'
5.14,'d','p'
5.28,'d','p'
4.51,'d','p'
5.19,'d','p'
5.53,'d','p'
5.09,'g','p'
5.6,'g','p'
5.95,'d','p'
6.66,'g','p'
6.93,'d','p'
6.66,'g','p'
5.84,'g','p'
6.49,'g','p'
5.74,'d','p'
5.68,'g','p'
6.23,'g','p'
5.33,'d','p'
6.87,'d','p'
5.22,'d','p'
5.56,'g','p'
5.82,'g','p'
7.51,'d','p'
5.81,'g','p'
6.78,'d','p'
5.7,'d','p'
7.37,'d','p'
7.46,'d','p'
6.07,'d','p'
4.84,'d','p'
5.98,'d','p'
7.07,'d','p'
6.39,'g','p'
5.89,'g','p'
5.75,'g','p'
5.97,'d','p'
6.72,'g','p'
6.15,'d','p'
6.28,'g','p'
6.29,'g','p'
6.33,'d','p'
5.27,'g','p'
5.55,'g','p'
6.64,'g','p'
5.92,'d','p'
5.62,'d','p'
6.61,'g','p'
6.04,'d','p'
7.48,'g','p'
5.76,'g','p'
5.5,'g','p'
5.86,'g','p'
5.63,'d','p'
5.3,'g','p'
7.48,'d','p'
6.66,'g','p'
6.81,'d','p'
6,'d','p'
5.89,'g','p'
6.04,'d','p'
7.1,'g','p'
6.18,'d','p'
5.91,'g','p'
6.43,'g','p'
6.22,'d','p'
6.39,'d','p'
7.11,'g','p'
5.8,'d','p'
6.4,'d','p'
6.67,'d','p'
6.31,'g','p'
5.97,'d','p'
6.27,'d','p'
5.92,'g','p'
6.11,'d','p'
4.99,'g','p'
4.8,'g','p'
6.55,'d','p'
7.5,'g','p'
5.85,'d','p'
6.04,'d','p'
7.22,'g','p'
5.97,'g','p'
6.94,'g','p'
6.51,'g','p'
6.34,'d','p'
5.78,'d','p'
5.45,'d','p'
5.06,'g','p'
5.82,'g','p'
4.59,'d','p'
6.74,'d','p'
6.25,'d','p'
5.82,'g','p'
5.81,'d','p'
5.92,'g','p'
5.67,'d','p'
5.74,'d','p'
5.68,'g','p'
5.73,'g','p'
5.65,'g','p'
6.75,'g','p'
5.01,'g','p'
6.11,'g','p'
5.47,'g','p'
7.51,'g','p'
6.44,'g','p'
6.96,'g','p'
5.85,'d','p'
6.67,'g','p'
7.98,'d','p'
8.93,'d','p'
7.63,'d','p'
7.62,'d','p'
8.77,'d','p'
8.26,'d','p'
8.7,'d','p'
8.06,'d','p'
8.07,'d','p'
7.85,'d','p'
6.88,'d','p'
7.54,'d','p'
8.24,'d','p'
7.64,'d','p'
8.68,'d','p'
7.6,'d','p'
8.79,'d','p'
8.09,'d','p'
8.08,'d','p'
8.23,'d','p'
7.68,'d','p'
9.19,'d','p'
7.29,'d','p'
7.91,'d','p'
8.36,'d','p'
7.74,'d','p'
7.86,'d','p'
7.35,'d','p'
8.18,'d','p'
8.19,'d','p'
7.61,'d','p'
8.3,'d','p'
8.38,'d','p'
8.01,'d','p'
8.39,'d','p'
8.31,'d','p'
8.44,'d','p'
8.17,'d','p'
7.86,'d','p'
8.36,'d','p'
7.94,'d','p'
7.23,'d','p'
7.36,'d','p'
8.6,'d','p'
7.66,'d','p'
7.72,'d','p'
10.06,'d','p'
8.24,'d','p'
7.43,'d','p'
8.03,'d','p'
8.45,'d','p'
7.41,'d','p'
8.43,'d','p'
7.41,'d','p'
8.6,'d','p'
7.99,'d','p'
7.99,'d','p'
7.84,'d','p'
8.05,'d','p'
6.93,'d','p'
7.49,'d','p'
8.69,'d','p'
8.09,'d','p'
9.36,'d','p'
8.51,'d','p'
9.07,'d','p'
6.51,'d','p'
7.92,'d','p'
8.26,'d','p'
7.53,'d','p'
7.61,'d','p'
8.35,'d','p'
6.68,'d','p'
7.98,'d','p'
7.83,'d','p'
7.81,'d','p'
7.78,'d','p'
8.49,'d','p'
7.31,'d','p'
7.63,'d','p'
7.62,'d','p'
9.38,'d','p'
7.12,'d','p'
10.24,'d','p'
7.28,'d','p'
8.39,'d','p'
7.56,'d','p'
8.17,'d','p'
9.16,'d','p'
7.63,'d','p'
9.48,'d','p'
8.46,'d','p'
8.23,'d','p'
9.11,'d','p'
8.02,'d','p'
8.88,'d','p'
7.87,'d','p'
8.19,'d','p'
7.82,'d','p'
7.79,'d','p'
7.25,'d','p'
6.66,'d','p'
6.91,'d','p'
7.1,'d','p'
8.6,'d','p'
7.96,'d','p'
8.83,'d','p'
9.27,'d','p'
7.98,'d','p'
7.83,'d','p'
6.63,'d','p'
6.32,'d','p'
8.1,'d','p'
7.69,'d','p'
8.9,'d','p'
8.27,'d','p'
7.68,'d','p'
8.77,'d','p'
7.5,'d','p'
8.28,'d','p'
8.74,'d','p'
8.51,'d','p'
8.15,'d','p'
8.24,'d','p'
8.63,'d','p'
7.94,'d','p'
8.82,'d','p'
8.3,'d','p'
7.51,'d','p'
7.49,'d','p'
8.81,'d','p'
6.92,'d','p'
8.84,'d','p'
9.04,'d','p'
7.69,'d','p'
7.42,'d','p'
8.15,'d','p'
8,'d','p'
8.93,'d','p'
7.83,'d','p'
8.26,'d','p'
7.5,'d','p'
8.43,'d','p'
7.34,'d','p'
8.25,'d','p'
7.97,'d','p'
8.08,'d','p'
8.21,'d','p'
7.58,'d','p'
7.7,'d','p'
6.6,'d','p'
7.7,'d','p'
8.62,'d','p'
7.08,'d','p'
7.24,'d','p'
9.51,'d','p'
9.18,'d','p'
8.42,'d','p'
9.12,'d','p'
7.09,'d','p'
7.22,'d','p'
6.81,'d','p'
7.81,'d','p'
6.92,'d','p'
7.4,'d','p'
8.55,'d','p'
7.71,'d','p'
8.82,'d','p'
7.27,'d','p'
8.64,'d','p'
8.07,'d','p'
8.95,'d','p'
7.98,'d','p'
8.08,'d','p'
9.36,'d','p'
7.66,'d','p'
9.88,'d','p'
8.87,'d','p'
8.18,'d','p'
7.74,'d','p'
7.68,'d','p'
8.51,'d','p'
8.7,'d','p'
8.35,'d','p'
7.52,'d','p'
7.35,'d','p'
6.04,'d','p'
8.25,'d','p'
7.27,'d','p'
8.34,'d','p'
7.31,'d','p'
6.81,'d','p'
8.03,'d','p'
8.15,'d','p'
7.09,'d','p'
8.19,'d','p'
7.92,'d','p'
7.47,'d','p'
7.97,'d','p'
8.65,'d','p'
8.24,'d','p'
8.38,'d','p'
7.69,'d','p'
8.87,'d','p'
8.66,'d','p'
8.9,'d','p'
8.21,'d','p'
7.9,'d','p'
7.99,'d','p'
7.89,'d','p'
6.89,'d','p'
7.68,'d','p'
8.5,'d','p'
7.31,'d','p'
8.36,'d','p'
7.8,'d','p'
7.21,'d','p'
7.94,'d','p'
9.09,'d','p'
7.46,'d','p'
7.8,'d','p'
8.62,'d','p'
7.81,'d','p'
8.39,'d','p'
8.98,'d','p'
8.11,'d','p'
8.65,'d','p'
8.6,'d','p'
8.06,'d','p'
8.07,'d','p'
9.74,'d','p'
8.39,'d','p'
7.6,'d','p'
8.43,'d','p'
7.08,'d','p'
8.21,'d','p'
8.03,'d','p'
8.22,'d','p'
8.03,'d','p'
9.13,'d','p'
8.65,'d','p'
8.23,'d','p'
8.1,'d','p'
8.27,'d','p'
8.32,'d','p'
8.59,'d','p'
8.8,'d','p'
7.62,'d','p'
8.05,'d','p'
7.85,'d','p'
7.49,'d','p'
8.1,'d','p'
8.04,'d','p'
7.14,'d','p'
8,'d','p'
7.46,'d','p'
8.54,'d','p'
7.98,'d','p'
6.99,'d','p'
7.47,'d','p'
6.65,'d','p'
8.75,'d','p'
8.32,'d','p'
8.26,'d','p'
8.15,'d','p'
7.3,'d','p'
6.47,'d','p'
8.22,'d','p'
8.51,'d','p'
9.91,'d','p'
8.21,'d','p'
8.16,'d','p'
7.52,'d','p'
8.5,'d','p'
7.92,'d','p'
8.14,'d','p'
8.86,'d','p'
7.8,'d','p'
8.05,'d','p'
8.06,'d','p'
7.95,'d','p'
8.05,'d','p'
8.03,'d','p'
8.77,'d','p'
7.91,'d','p'
8.81,'d','p'
8.12,'d','p'
8.79,'d','p'
9,'d','p'
8.01,'d','p'
8.52,'d','p'
7.72,'d','p'
8.54,'d','p'
7.43,'d','p'
7.57,'d','p'
8.55,'d','p'
7.17,'d','p'
8.41,'d','p'
8.41,'d','p'
8.8,'d','p'
7.6,'d','p'
7.19,'d','p'
7.85,'d','p'
8.24,'d','p'
7.55,'d','p'
7.9,'d','p'
8,'d','p'
7.52,'d','p'
7.3,'d','p'
8.7,'d','p'
7.11,'d','p'
7.14,'d','p'
8.65,'d','p'
7.95,'d','p'
7.71,'d','p'
8.14,'d','p'
8.81,'d','p'
7.28,'d','p'
7.89,'d','p'
8.34,'d','p'
8.7,'d','p'
7.23,'d','p'
7.27,'d','p'
7.88,'d','p'
8.41,'d','p'
7.78,'d','p'
8.03,'d','p'
8.66,'d','p'
7.53,'d','p'
7.5,'d','p'
8.45,'d','p'
7.83,'d','p'
7.61,'d','p'
8.66,'d','p'
6.95,'d','p'
7.56,'d','p'
8.58,'d','p'
7.77,'d','p'
7.51,'d','p'
8.08,'d','p'
8.16,'d','p'
8.55,'d','p'
8.38,'d','p'
7.72,'d','p'
7.3,'d','p'
7.64,'d','p'
8.65,'d','p'
7.21,'d','p'
7.66,'d','p'
6.83,'d','p'
8.83,'d','p'
6.99,'d','p'
8.53,'d','p'
4.33,'d','p'
3.71,'d','p'
4.07,'d','p'
4.35,'d','p'
4.03,'d','p'
2.67,'d','p'
3.85,'d','p'
3.25,'d','p'
3.39,'d','p'
4.11,'d','p'
3.53,'d','p'
4.05,'d','p'
3.5,'d','p'
2.64,'d','p'
3.48,'d','p'
3.6,'d','p'
3.27,'d','p'
3.65,'d','p'
3.28,'d','p'
3.83,'d','p'
3.13,'d','p'
3.62,'d','p'
3.17,'d','p'
4.57,'d','p'
3.93,'d','p'
3.02,'d','p'
3.9,'d','p'
3.75,'d','p'
3.66,'d','p'
3.04,'d','p'
3.32,'d','p'
4.42,'d','p'
3.56,'d','p'
3,'d','p'
3.41,'d','p'
3.12,'d','p'
3.79,'d','p'
2.94,'d','p'
2.87,'d','p'
3.7,'d','p'
3.33,'d','p'
3.35,'d','p'
3.87,'d','p'
3.39,'d','p'
3.51,'d','p'
4,'d','p'
2.45,'d','p'
3.13,'d','p'
3.61,'d','p'
3.48,'d','p'
4.02,'d','p'
3.8,'d','p'
3.52,'d','p'
2.69,'d','p'
3.34,'d','p'
2.86,'d','p'
2.94,'d','p'
3.48,'d','p'
3.13,'d','p'
3.2,'d','p'
3.34,'d','p'
2.62,'d','p'
3.61,'d','p'
3.71,'d','p'
3.21,'d','p'
3.17,'d','p'
3.51,'d','p'
3.33,'d','p'
4.82,'d','p'
3.94,'d','p'
3.01,'d','p'
2.71,'d','p'
3.19,'d','p'
4.13,'d','p'
4.07,'d','p'
3.92,'d','p'
3.17,'d','p'
3.98,'d','p'
3.44,'d','p'
3.45,'d','p'
3.36,'d','p'
3.88,'d','p'
2.95,'d','p'
3.49,'d','p'
3.37,'d','p'
4,'d','p'
4.49,'d','p'
3.73,'d','p'
3.49,'d','p'
3.55,'d','p'
3.09,'d','p'
3.52,'d','p'
3.34,'d','p'
3.68,'d','p'
3.93,'d','p'
2.35,'d','p'
3.3,'d','p'
3.91,'d','p'
2.52,'d','p'
3.61,'d','p'
3.3,'d','p'
3.08,'d','p'
4.56,'d','p'
3.55,'d','p'
3.87,'d','p'
3.49,'d','p'
3.88,'d','p'
2.8,'d','p'
4.52,'d','p'
3.66,'d','p'
3.34,'d','p'
3.01,'d','p'
2.47,'d','p'
4.12,'d','p'
3.48,'d','p'
3.11,'d','p'
3.83,'d','p'
3.1,'d','p'
3.94,'d','p'
2.84,'d','p'
3.66,'d','p'
3.78,'d','p'
3.22,'d','p'
3.27,'d','p'
3.01,'d','p'
3.16,'d','p'
4.08,'d','p'
2.89,'d','p'
3.4,'d','p'
2.76,'d','p'
3.29,'d','p'
2.71,'d','p'
3.4,'d','p'
3.43,'d','p'
3.09,'d','p'
3.76,'d','p'
3.2,'d','p'
3.5,'d','p'
3.02,'d','p'
3.88,'d','p'
3.81,'d','p'
3.32,'d','p'
3.8,'d','p'
4.32,'d','p'
3.44,'d','p'
3.31,'d','p'
3.14,'d','p'
2.9,'d','p'
2.71,'d','p'
3.61,'d','p'
2.89,'d','p'
2.66,'d','p'
2.99,'d','p'
3.26,'d','p'
4.02,'d','p'
3.6,'d','p'
4.07,'d','p'
3.79,'d','p'
3.44,'d','p'
2.85,'d','p'
3.33,'d','p'
3.63,'d','p'
4.08,'d','p'
3.25,'d','p'
3.8,'d','p'
3.41,'d','p'
2.96,'d','p'
3.89,'d','p'
3.88,'d','p'
4.17,'d','p'
3.68,'d','p'
2.75,'d','p'
3.43,'d','p'
3.84,'d','p'
4.02,'d','p'
3.26,'d','p'
2.6,'d','p'
4.61,'d','p'
2.78,'d','p'
4.47,'d','p'
3.82,'d','p'
3.46,'d','p'
2.94,'d','p'
3.79,'d','p'
3.72,'d','p'
3.48,'d','p'
3.45,'d','p'
2.1,'d','p'
2.88,'d','p'
3.45,'d','p'
3.67,'d','p'
2.63,'d','p'
3.38,'d','p'
3.07,'d','p'
3.8,'d','p'
2.98,'d','p'
2.95,'d','p'
3.73,'d','p'
4.09,'d','p'
3.62,'d','p'
2.82,'d','p'
3.66,'d','p'
3.72,'d','p'
3.41,'d','p'
3.9,'d','p'
3.49,'d','p'
3.12,'d','p'
3.52,'d','p'
3.7,'d','p'
3.48,'d','p'
3.98,'d','p'
3.73,'d','p'
3.17,'d','p'
3.63,'d','p'
2.56,'d','p'
3.71,'d','p'
4.04,'d','p'
4.01,'d','p'
2.99,'d','p'
4.68,'d','p'
3.31,'d','p'
2.84,'d','p'
3.76,'d','p'
3.72,'d','p'
2.52,'d','p'
3.07,'d','p'
3.55,'d','p'
2.18,'d','p'
4.22,'d','p'
3.07,'d','p'
3.18,'d','p'
3.61,'d','p'
2.35,'d','p'
3.12,'d','p'
3.24,'d','p'
2.28,'d','p'
3.19,'d','p'
3.66,'d','p'
3.83,'d','p'
3.76,'d','p'
3.24,'d','p'
3.81,'d','p'
3.44,'d','p'
3.94,'d','p'
3.48,'d','p'
3.44,'d','p'
3.33,'d','p'
3.37,'d','p'
3.99,'d','p'
3.52,'d','p'
3.58,'d','p'
3.82,'d','p'
3.72,'d','p'
3.2,'d','p'
3.43,'d','p'
3.78,'d','p'
3.05,'d','p'
2.64,'d','p'
2.89,'d','p'
4.01,'d','p'
2.8,'d','p'
3.42,'d','p'
3.49,'d','p'
4.37,'d','p'
4.09,'d','p'
3.67,'d','p'
3.4,'d','p'
4.06,'d','p'
3.31,'d','p'
3.34,'d','p'
4.45,'d','p'
2.74,'d','p'
3.01,'d','p'
4.06,'d','p'
3.11,'d','p'
4.16,'d','p'
3.31,'d','p'
4.02,'d','p'
3.9,'d','p'
3.83,'d','p'
3.58,'d','p'
3.62,'d','p'
4,'d','p'
3.93,'d','p'
3.63,'d','p'
3.4,'d','p'
3.34,'d','p'
3.24,'d','p'
2.61,'d','p'
3.19,'d','p'
3.8,'d','p'
2.46,'d','p'
3.7,'d','p'
3,'d','p'
4.02,'d','p'
2.84,'d','p'
3.89,'d','p'
3.17,'d','p'
2.84,'d','p'
3.57,'d','p'
3.82,'d','p'
3.65,'d','p'
3.99,'d','p'
3.99,'d','p'
3.5,'d','p'
4.5,'d','p'
4.06,'d','p'
2.43,'d','p'
3.55,'d','p'
2.8,'d','p'
4.13,'d','p'
3.25,'d','p'
3.19,'d','p'
4.19,'d','p'
4.11,'d','p'
4.05,'d','p'
2.95,'d','p'
4.82,'d','p'
4.17,'d','p'
3.53,'d','p'
3.49,'d','p'
3.65,'d','p'
4.09,'d','p'
3.3,'d','p'
2.83,'d','p'
3.66,'d','p'
3.36,'d','p'
3.87,'d','p'
4.11,'d','p'
3.14,'d','p'
2.73,'d','p'
3.76,'d','p'
4.11,'d','p'
2.83,'d','p'
3.39,'d','p'
3.14,'d','p'
3.96,'d','p'
4.12,'d','p'
3.6,'d','p'
3.91,'d','p'
2.71,'d','p'
3.96,'d','p'
4.34,'d','p'
3.98,'d','p'
2.9,'d','p'
3.1,'d','p'
3.48,'d','p'
3.4,'d','p'
3.61,'d','p'
4.02,'d','p'
3.67,'d','p'
3.09,'d','p'
3.45,'d','p'
2.42,'d','e'
2.32,'d','e'
2.96,'d','e'
2.67,'d','e'
3.07,'d','e'
3.21,'d','e'
2.94,'d','e'
3,'d','e'
2.91,'d','e'
2.89,'d','e'
2.86,'d','e'
3.64,'d','e'
2.99,'d','e'
2.65,'d','e'
3.48,'d','e'
2.91,'d','e'
2.65,'d','e'
3.59,'d','e'
3.25,'d','e'
3.05,'d','e'
2.44,'d','e'
3.03,'d','e'
2.6,'d','e'
3.23,'d','e'
2.75,'d','e'
3.06,'d','e'
3.05,'d','e'
2.87,'d','e'
2.83,'d','e'
3.13,'d','e'
2.65,'d','e'
2.74,'d','e'
3.12,'d','e'
2.94,'d','e'
3.24,'d','e'
2.55,'d','e'
3.01,'d','e'
2.81,'d','e'
2.36,'d','e'
2.77,'d','e'
2.69,'d','e'
2.25,'d','e'
3.21,'d','e'
2.88,'d','e'
2.83,'d','e'
2.5,'d','e'
2.95,'d','e'
2.6,'d','e'
3.48,'d','e'
3.08,'d','e'
3.04,'d','e'
3.36,'d','e'
3.17,'d','e'
3.6,'d','e'
2.75,'d','e'
2.66,'d','e'
2.44,'d','e'
2.43,'d','e'
2.82,'d','e'
2.87,'d','e'
3.04,'d','e'
3.19,'d','e'
2.57,'d','e'
2.33,'d','e'
3.12,'d','e'
3.48,'d','e'
3.04,'d','e'
2.69,'d','e'
2.97,'d','e'
2.72,'d','e'
3.06,'d','e'
3.16,'d','e'
3.27,'d','e'
2.78,'d','e'
3.32,'d','e'
3.42,'d','e'
2.86,'d','e'
2.81,'d','e'
3.16,'d','e'
2.97,'d','e'
3.29,'d','e'
2.54,'d','e'
2.41,'d','e'
3.22,'d','e'
2.92,'d','e'
2.46,'d','e'
2.67,'d','e'
2.95,'d','e'
3.17,'d','e'
2.95,'d','e'
3.42,'d','e'
3.21,'d','e'
3.16,'d','e'
3.14,'d','e'
3.39,'d','e'
2.6,'d','e'
3.16,'d','e'
3.15,'d','e'
2.95,'d','e'
3.78,'d','e'
3,'d','e'
3.12,'d','e'
3.02,'d','e'
3.75,'d','e'
3,'d','e'
3.06,'d','e'
3,'d','e'
2.66,'d','e'
3.55,'d','e'
2.99,'d','e'
3.04,'d','e'
3.26,'d','e'
3.35,'d','e'
3.11,'d','e'
2.92,'d','e'
3.25,'d','e'
3.49,'d','e'
3.75,'d','e'
2.76,'d','e'
3.39,'d','e'
3.43,'d','e'
3.23,'d','e'
3.39,'d','e'
3.06,'d','e'
3.36,'d','e'
2.79,'d','e'
2.87,'d','e'
3.14,'d','e'
3.04,'d','e'
2.87,'d','e'
3.32,'d','e'
3,'d','e'
2.97,'d','e'
2.75,'d','e'
2.77,'d','e'
2.94,'d','e'
3.05,'d','e'
2.85,'d','e'
3.23,'d','e'
2.64,'d','e'
3.53,'d','e'
3,'d','e'
3.13,'d','e'
2.52,'d','e'
3.07,'d','e'
3.04,'d','e'
3,'d','e'
2.61,'d','e'
2.46,'d','e'
2.84,'d','e'
3.18,'d','e'
3.11,'d','e'
2.52,'d','e'
2.87,'d','e'
2.9,'d','e'
2.73,'d','e'
3,'d','e'
2.73,'d','e'
3.13,'d','e'
3.43,'d','e'
2.99,'d','e'
3.07,'d','e'
3.12,'d','e'
2.78,'d','e'
3.1,'d','e'
2.88,'d','e'
3.12,'d','e'
3.15,'d','e'
2.95,'d','e'
2.35,'d','e'
3.22,'d','e'
3.12,'d','e'
2.42,'d','e'
2.71,'d','e'
3.42,'d','e'
2.63,'d','e'
3,'d','e'
3.33,'d','e'
1.98,'d','e'
2.61,'d','e'
2.74,'d','e'
2.97,'d','e'
2.89,'d','e'
3.07,'d','e'
2.41,'d','e'
3.36,'d','e'
3.01,'d','e'
3,'d','e'
2.79,'d','e'
3.27,'d','e'
4.04,'d','e'
2.98,'d','e'
2.48,'d','e'
2.97,'d','e'
2.57,'d','e'
3.37,'d','e'
2.82,'d','e'
2.78,'d','e'
3.17,'d','e'
3.26,'d','e'
2.79,'d','e'
2.81,'d','e'
3.04,'d','e'
3.18,'d','e'
2.7,'d','e'
2.9,'d','e'
3.34,'d','e'
3.25,'d','e'
3.44,'d','e'
3.54,'d','e'
3.79,'d','e'
2.79,'d','e'
2.97,'d','e'
2.89,'d','e'
3.13,'d','e'
3.02,'d','e'
2.47,'d','e'
3.18,'d','e'
3.18,'d','e'
2.9,'d','e'
3.15,'d','e'
3.17,'d','e'
2.78,'d','e'
3.05,'d','e'
2.83,'d','e'
2.92,'d','e'
3.33,'d','e'
3.33,'d','e'
3.76,'d','e'
3.02,'d','e'
2.7,'d','e'
3.07,'d','e'
2.98,'d','e'
3.67,'d','e'
3.47,'d','e'
3.14,'d','e'
3.32,'d','e'
3.1,'d','e'
3.04,'d','e'
2.72,'d','e'
3.35,'d','e'
3.04,'d','e'
2.74,'d','e'
2.86,'d','e'
2.85,'d','e'
3.19,'d','e'
3.11,'d','e'
2.56,'d','e'
3.3,'d','e'
3.02,'d','e'
3.61,'d','e'
3.33,'d','e'
2.78,'d','e'
2.39,'d','e'
3.51,'d','e'
2.94,'d','e'
3.05,'d','e'
3.57,'d','e'
3.5,'d','e'
3.23,'d','e'
2.79,'d','e'
3,'d','e'
2.92,'d','e'
2.98,'d','e'
2.62,'d','e'
2.83,'d','e'
3.36,'d','e'
2.37,'d','e'
3.01,'d','e'
2.45,'d','e'
3.59,'d','e'
4.26,'d','e'
2.63,'d','e'
3.65,'d','e'
2.94,'d','e'
2.49,'d','e'
2.86,'d','e'
3.76,'d','e'
3.07,'d','e'
3.09,'d','e'
2.54,'d','e'
3.3,'d','e'
2.86,'d','e'
3.1,'d','e'
3.1,'d','e'
3.32,'d','e'
2.73,'d','e'
3.11,'d','e'
2.87,'d','e'
2.47,'d','e'
2.66,'d','e'
2.79,'d','e'
3.4,'d','e'
3.66,'d','e'
2.84,'d','e'
2.87,'d','e'
2.69,'d','e'
3.14,'d','e'
2.98,'d','e'
3.01,'d','e'
3.23,'d','e'
2.75,'d','e'
3.69,'d','e'
2.66,'d','e'
3.29,'d','e'
2.79,'d','e'
3.02,'d','e'
2.65,'d','e'
3.06,'d','e'
2.74,'d','e'
3,'d','e'
2.27,'d','e'
3.18,'d','e'
2.99,'d','e'
3.18,'d','e'
2.32,'d','e'
2.78,'d','e'
2.92,'d','e'
2.92,'d','e'
3.39,'d','e'
2.95,'d','e'
2.88,'d','e'
3.44,'d','e'
3.33,'d','e'
2.36,'d','e'
2.6,'d','e'
3.03,'d','e'
2.47,'d','e'
3.19,'d','e'
3.4,'d','e'
3.17,'d','e'
3.04,'d','e'
2.26,'d','e'
2.97,'d','e'
2.58,'d','e'
3.67,'d','e'
2.67,'d','e'
3,'d','e'
2.66,'d','e'
2.66,'d','e'
3,'d','e'
3.02,'d','e'
3.5,'d','e'
3.26,'d','e'
2.6,'d','e'
3.08,'d','e'
2.48,'d','e'
3.48,'d','e'
2.84,'d','e'
3.28,'d','e'
3.46,'d','e'
2.97,'d','e'
2.68,'d','e'
1,'d','e'
1.14,'d','e'
0.8,'d','e'
0.98,'d','e'
1.15,'d','e'
0.9,'d','e'
0.96,'d','e'
0.83,'d','e'
1,'d','e'
0.96,'d','e'
1.18,'d','e'
1.04,'d','e'
0.89,'d','e'
0.93,'d','e'
1.07,'d','e'
1.33,'d','e'
1.1,'d','e'
0.98,'d','e'
1.09,'d','e'
1.06,'d','e'
1.13,'d','e'
1.16,'d','e'
0.97,'d','e'
0.98,'d','e'
0.95,'d','e'
1.23,'d','e'
0.59,'d','e'
1.05,'d','e'
1.27,'d','e'
0.54,'d','e'
0.57,'d','e'
1.41,'d','e'
1.02,'d','e'
0.74,'d','e'
0.77,'d','e'
1.1,'d','e'
0.89,'d','e'
1,'d','e'
1.22,'d','e'
1.02,'d','e'
0.93,'d','e'
1.01,'d','e'
1.04,'d','e'
0.83,'d','e'
0.87,'d','e'
1.01,'d','e'
1.3,'d','e'
1.21,'d','e'
1.03,'d','e'
0.84,'d','e'
1.01,'d','e'
0.85,'d','e'
0.87,'d','e'
0.78,'d','e'
1.16,'d','e'
0.97,'d','e'
1.13,'d','e'
1.07,'d','e'
0.68,'d','e'
0.99,'d','e'
0.99,'d','e'
0.9,'d','e'
0.93,'d','e'
1.13,'d','e'
1.17,'d','e'
1.04,'d','e'
1.01,'d','e'
1.4,'d','e'
0.98,'d','e'
0.86,'d','e'
1.19,'d','e'
1.19,'d','e'
0.93,'d','e'
1.23,'d','e'
0.84,'d','e'
1.14,'d','e'
1.01,'d','e'
0.88,'d','e'
0.53,'d','e'
1.01,'d','e'
1.28,'d','e'
1.31,'d','e'
0.79,'d','e'
0.87,'d','e'
1.16,'d','e'
1.04,'d','e'
0.83,'d','e'
0.94,'d','e'
1.02,'d','e'
1.02,'d','e'
1.29,'d','e'
1.12,'d','e'
0.74,'d','e'
0.93,'d','e'
1.2,'d','e'
1,'d','e'
1.03,'d','e'
1.38,'d','e'
0.89,'d','e'
0.94,'d','e'
1.04,'d','e'
1.14,'d','e'
0.84,'d','e'
0.78,'d','e'
1.09,'d','e'
0.75,'d','e'
1.03,'d','e'
1.05,'d','e'
0.84,'d','e'
0.74,'d','e'
1.03,'d','e'
1.2,'d','e'
1.13,'d','e'
1.3,'d','e'
0.83,'d','e'
0.96,'d','e'
1.08,'d','e'
1.11,'d','e'
1.2,'d','e'
0.98,'d','e'
0.85,'d','e'
1.12,'d','e'
0.89,'d','e'
1.08,'d','e'
1.31,'d','e'
1.12,'d','e'
0.71,'d','e'
0.9,'d','e'
0.84,'d','e'
1.21,'d','e'
0.97,'d','e'
0.88,'d','e'
1.23,'d','e'
0.95,'d','e'
0.96,'d','e'
0.98,'d','e'
1.2,'d','e'
1.06,'d','e'
0.78,'d','e'
0.81,'d','e'
0.9,'d','e'
1.07,'d','e'
0.83,'d','e'
1.1,'d','e'
1.01,'d','e'
1.31,'d','e'
1.19,'d','e'
0.8,'d','e'
0.81,'d','e'
1.09,'d','e'
1.1,'d','e'
0.96,'d','e'
0.84,'d','e'
1.14,'d','e'
0.84,'d','e'
1.09,'d','e'
0.9,'d','e'
0.91,'d','e'
1.22,'d','e'
1.18,'d','e'
0.97,'d','e'
1.11,'d','e'
0.8,'d','e'
0.68,'d','e'
0.97,'d','e'
0.99,'d','e'
0.82,'d','e'
1.26,'d','e'
1.15,'d','e'
0.89,'d','e'
0.98,'d','e'
1.25,'d','e'
0.9,'d','e'
0.86,'d','e'
1,'d','e'
1.09,'d','e'
0.91,'d','e'
0.9,'d','e'
1,'d','e'
1,'d','e'
1,'d','e'
1.01,'d','e'
0.63,'d','e'
0.86,'d','e'
0.92,'d','e'
0.98,'d','e'
0.92,'d','e'
1.2,'d','e'
1.2,'d','e'
0.94,'d','e'
0.82,'d','e'
1.27,'d','e'
1.29,'d','e'
0.81,'d','e'
1.12,'d','e'
0.95,'d','e'
1.08,'d','e'
1.06,'d','e'
0.81,'d','e'
0.96,'d','e'
0.81,'d','e'
0.86,'d','e'
1.08,'d','e'
0.84,'d','e'
0.98,'d','e'
1.09,'d','e'
0.97,'d','e'
1.01,'d','e'
0.9,'d','e'
0.7,'d','e'
1.02,'d','e'
0.88,'d','e'
1.04,'d','e'
1.03,'d','e'
1.17,'d','e'
0.92,'d','e'
0.88,'d','e'
1.33,'d','e'
0.91,'d','e'
0.95,'d','e'
0.96,'d','e'
1.08,'d','e'
0.92,'d','e'
1.1,'d','e'
0.89,'d','e'
0.87,'d','e'
0.96,'d','e'
0.94,'d','e'
0.86,'d','e'
1.34,'d','e'
1.18,'d','e'
0.83,'d','e'
0.84,'d','e'
0.85,'d','e'
1.17,'d','e'
1.21,'d','e'
1.29,'d','e'
0.88,'d','e'
0.92,'d','e'
1.1,'d','e'
0.81,'d','e'
0.99,'d','e'
0.77,'d','e'
1.36,'d','e'
0.89,'d','e'
1.11,'d','e'
1.09,'d','e'
1.06,'d','e'
1.09,'d','e'
0.96,'d','e'
1.15,'d','e'
0.93,'d','e'
0.71,'d','e'
0.99,'d','e'
1.25,'d','e'
1.03,'d','e'
1.15,'d','e'
1.1,'d','e'
0.97,'d','e'
1.2,'d','e'
0.88,'d','e'
0.85,'d','e'
0.97,'d','e'
0.84,'d','e'
1.32,'d','e'
1.05,'d','e'
1.05,'d','e'
0.98,'d','e'
1.32,'d','e'
1.01,'d','e'
1.21,'d','e'
0.86,'d','e'
0.95,'d','e'
1.3,'d','e'
1.3,'d','e'
0.94,'d','e'
0.79,'d','e'
0.86,'d','e'
0.93,'d','e'
1.39,'d','e'
1.05,'d','e'
1.1,'d','e'
1.04,'d','e'
0.99,'d','e'
1.21,'d','e'
1.09,'d','e'
1,'d','e'
1.18,'d','e'
0.99,'d','e'
1.16,'d','e'
0.93,'d','e'
0.94,'d','e'
0.92,'d','e'
0.85,'d','e'
1.19,'d','e'
0.87,'d','e'
1.15,'d','e'
0.87,'d','e'
1.01,'d','e'
1.04,'d','e'
1.02,'d','e'
0.62,'d','e'
1.06,'d','e'
1.38,'d','e'
0.95,'d','e'
0.92,'d','e'
1.03,'d','e'
0.74,'d','e'
1.09,'d','e'
1.13,'d','e'
0.85,'d','e'
0.94,'d','e'
1.14,'d','e'
1.03,'d','e'
0.64,'d','e'
0.86,'d','e'
0.9,'d','e'
1.47,'d','e'
0.93,'d','e'
1.14,'d','e'
1.24,'d','e'
1.19,'d','e'
0.97,'d','e'
1.25,'d','e'
0.91,'d','e'
1.19,'d','e'
1.17,'d','e'
1.23,'d','e'
1.25,'d','e'
1.06,'d','e'
0.7,'d','e'
0.82,'d','e'
1,'d','e'
0.88,'d','e'
1.03,'d','e'
1.19,'d','e'
1.08,'d','e'
0.84,'d','e'
1.1,'d','e'
0.82,'d','e'
1.33,'d','e'
0.88,'d','e'
1.02,'d','e'
1.08,'d','e'
1.18,'d','e'
1.08,'d','e'
0.99,'d','e'
0.99,'d','e'
1.13,'d','e'
0.94,'d','e'
1.03,'d','e'
0.93,'d','e'
1.02,'d','e'
1.46,'g','e'
1.63,'d','e'
1.55,'g','e'
1.51,'d','e'
1.59,'d','e'
1.67,'d','e'
1.63,'g','e'
1.33,'g','e'
1.49,'g','e'
1.4,'d','e'
1.46,'g','e'
1.5,'d','e'
1.21,'d','e'
1.5,'g','e'
1.38,'g','e'
1.42,'g','e'
1.74,'g','e'
1.61,'d','e'
1.3,'g','e'
1.49,'d','e'
1.52,'g','e'
1.32,'d','e'
1.61,'g','e'
1.56,'g','e'
1.29,'g','e'
1.47,'d','e'
1.58,'d','e'
1.32,'d','e'
1.45,'g','e'
1.56,'d','e'
1.67,'d','e'
1.79,'g','e'
1.59,'g','e'
1.55,'d','e'
1.36,'g','e'
1.3,'d','e'
1.5,'g','e'
1.06,'d','e'
1.41,'g','e'
1.45,'g','e'
1.51,'g','e'
1.64,'g','e'
1.71,'g','e'
1.3,'g','e'
1.56,'g','e'
1.35,'g','e'
1.35,'d','e'
1.78,'d','e'
1.55,'d','e'
1.82,'d','e'
1.28,'g','e'
1.75,'d','e'
1.56,'g','e'
1.62,'d','e'
1.13,'d','e'
1.53,'g','e'
1.43,'d','e'
1.39,'g','e'
1.7,'g','e'
1.61,'g','e'
1.57,'g','e'
1.71,'g','e'
1.45,'g','e'
1.35,'d','e'
1.27,'d','e'
1.48,'d','e'
1.52,'d','e'
1.52,'g','e'
1.68,'g','e'
1.29,'d','e'
1.65,'g','e'
1.72,'g','e'
1.67,'g','e'
1.64,'g','e'
1.47,'d','e'
1.45,'g','e'
1.24,'g','e'
1.4,'d','e'
1.39,'g','e'
1.6,'d','e'
1.74,'d','e'
1.5,'d','e'
1.25,'g','e'
1.3,'g','e'
1.46,'d','e'
1.73,'g','e'
1.67,'g','e'
1.26,'g','e'
1.48,'d','e'
1.64,'d','e'
1.37,'d','e'
1.53,'d','e'
1.61,'g','e'
1.31,'g','e'
1.45,'g','e'
1.46,'g','e'
1.44,'g','e'
1.62,'g','e'
1.45,'d','e'
1.49,'d','e'
1.6,'d','e'
1.37,'d','e'
1.72,'d','e'
1.24,'d','e'
1.32,'g','e'
1.42,'d','e'
1.69,'d','e'
1.14,'d','e'
1.8,'g','e'
1.62,'d','e'
1.5,'d','e'
1.51,'d','e'
1.44,'d','e'
1.44,'g','e'
1.57,'d','e'
1.35,'g','e'
1.44,'g','e'
1.83,'d','e'
1.77,'g','e'
1.44,'d','e'
1.31,'g','e'
1.41,'d','e'
1.24,'g','e'
1.54,'d','e'
1.37,'d','e'
1.58,'g','e'
1.51,'d','e'
1.56,'d','e'
1.52,'g','e'
1.12,'d','e'
1.56,'d','e'
1.42,'d','e'
1.53,'g','e'
1.65,'g','e'
1.16,'d','e'
1.75,'d','e'
1.16,'d','e'
1.48,'d','e'
1.6,'g','e'
1.49,'g','e'
1.71,'g','e'
1.52,'g','e'
1.68,'d','e'
1.66,'d','e'
1.48,'d','e'
1.71,'d','e'
1.37,'d','e'
1.23,'g','e'
1.64,'d','e'
1.54,'g','e'
1.38,'g','e'
1.37,'d','e'
1.46,'g','e'
1.64,'g','e'
1.31,'g','e'
1.52,'g','e'
1.62,'g','e'
1.47,'d','e'
1.11,'d','e'
1.48,'g','e'
1.34,'g','e'
1.59,'d','e'
1.3,'d','e'
1.73,'g','e'
1.38,'g','e'
1.67,'d','e'
1.63,'d','e'
1.62,'d','e'
1.75,'g','e'
1.43,'d','e'
1.42,'d','e'
1.35,'d','e'
1.52,'g','e'
1.69,'g','e'
1.47,'g','e'
1.35,'d','e'
1.2,'g','e'
1.59,'d','e'
1.51,'g','e'
1.62,'d','e'
1.57,'d','e'
1.62,'g','e'
1.43,'d','e'
1.73,'d','e'
1.49,'d','e'
1.61,'d','e'
1.36,'d','e'
1.38,'d','e'
1.26,'d','e'
1.6,'d','e'
1.46,'g','e'
1.53,'g','e'
1.36,'g','e'
1.84,'d','e'
1.38,'g','e'
1.33,'g','e'
1.35,'g','e'
1.58,'g','e'
1.46,'d','e'
1.27,'g','e'
1.68,'d','e'
1.52,'d','e'
1.58,'g','e'
1.52,'g','e'
1.35,'d','e'
1.51,'g','e'
1.22,'g','e'
1.56,'d','e'
1.48,'g','e'
1.49,'g','e'
1.51,'d','e'
1.49,'d','e'
1.75,'d','e'
1.27,'g','e'
1.48,'d','e'
1.54,'g','e'
1.55,'d','e'
1.24,'d','e'
1.58,'d','e'
1.75,'d','e'
1.52,'g','e'
1.38,'g','e'
1.33,'g','e'
1.11,'d','e'
1.69,'d','e'
1.58,'g','e'
1.12,'g','e'
1.75,'g','e'
1.3,'g','e'
1.53,'d','e'
1.28,'g','e'
1.48,'g','e'
1.18,'d','e'
1.65,'d','e'
1.54,'d','e'
1.58,'g','e'
1.56,'g','e'
1.63,'d','e'
1.55,'d','e'
1.29,'d','e'
1.41,'d','e'
1.39,'d','e'
1.44,'d','e'
1.56,'d','e'
1.42,'g','e'
1.31,'g','e'
1.49,'g','e'
1.61,'g','e'
1.56,'d','e'
1.47,'g','e'
1.46,'g','e'
1.67,'g','e'
1.65,'g','e'
1.29,'d','e'
1.65,'g','e'
1.15,'g','e'
1.54,'g','e'
1.59,'d','e'
1.43,'d','e'
1.61,'d','e'
1.49,'d','e'
1.36,'g','e'
1.71,'d','e'
1.41,'d','e'
1.76,'g','e'
1.35,'d','e'
1.51,'d','e'
1.24,'d','e'
1.4,'d','e'
1.39,'d','e'
1.53,'d','e'
1.41,'d','e'
1.76,'d','e'
1.5,'d','e'
1.46,'g','e'
1.41,'d','e'
1.47,'g','e'
1.31,'g','e'
1.99,'g','e'
1.57,'d','e'
1.47,'g','e'
1.57,'g','e'
1.32,'g','e'
1.48,'d','e'
1.78,'d','e'
1.49,'g','e'
1.38,'g','e'
1.42,'g','e'
1.62,'d','e'
1.25,'g','e'
1.57,'g','e'
1.46,'g','e'
1.61,'d','e'
1.44,'d','e'
1.61,'d','e'
1.49,'g','e'
1.94,'g','e'
1.47,'g','e'
1.58,'g','e'
1.52,'g','e'
1.4,'g','e'
1.41,'d','e'
1.26,'g','e'
1.36,'d','e'
1.59,'d','e'
1.59,'g','e'
1.45,'d','e'
1.42,'g','e'
1.48,'d','e'
1.56,'d','e'
1.29,'g','e'
1.41,'d','e'
1.76,'g','e'
1.6,'d','e'
1.65,'g','e'
1.5,'d','e'
1.66,'g','e'
1.69,'d','e'
1.56,'d','e'
1.58,'g','e'
1.58,'g','e'
1.23,'d','e'
1.6,'d','e'
1.09,'d','e'
1.57,'g','e'
1.51,'g','e'
1.69,'g','e'
1.37,'g','e'
1.47,'d','e'
1.39,'d','e'
1.59,'d','e'
1.63,'g','e'
1.23,'g','e'
1.17,'d','e'
1.55,'g','e'
1.25,'d','e'
1.24,'g','e'
1.56,'g','e'
1.52,'g','e'
1.72,'g','e'
1.54,'d','e'
1.64,'d','e'
1.63,'d','e'
1.44,'d','e'
1.28,'d','e'
1.83,'d','e'
1.78,'d','e'
1.51,'d','e'
1.64,'d','e'
1.55,'g','e'
1.68,'g','e'
1.89,'d','e'
1.44,'d','e'
4.25,'d','e'
4.82,'d','e'
4.43,'d','e'
5.06,'d','e'
4.68,'d','e'
4.67,'d','e'
4.22,'d','e'
4.62,'d','e'
4.9,'d','e'
5.1,'d','e'
4.77,'d','e'
4.12,'d','e'
4.83,'d','e'
4.47,'d','e'
3.85,'d','e'
4.45,'d','e'
4.99,'d','e'
4.5,'d','e'
4.95,'d','e'
4.21,'d','e'
4.75,'d','e'
5.71,'d','e'
4.39,'d','e'
4.18,'d','e'
5.15,'d','e'
4.1,'d','e'
4.84,'d','e'
4.13,'d','e'
5.16,'d','e'
4.65,'d','e'
4.79,'d','e'
4.04,'d','e'
4.86,'d','e'
5.33,'d','e'
4.21,'d','e'
4.99,'d','e'
4.43,'d','e'
4.48,'d','e'
4.91,'d','e'
4.71,'d','e'
4.14,'d','e'
3.44,'d','e'
4.64,'d','e'
4.59,'d','e'
4.77,'d','e'
4.5,'d','e'
4.93,'d','e'
5.12,'d','e'
5.15,'d','e'
4.74,'d','e'
4.88,'d','e'
3.84,'d','e'
4.12,'d','e'
4.65,'d','e'
3.6,'d','e'
4.45,'d','e'
3.21,'d','e'
4.43,'d','e'
5.31,'d','e'
3.72,'d','e'
3.95,'d','e'
4.97,'d','e'
4.33,'d','e'
3.96,'d','e'
3.78,'d','e'
4.65,'d','e'
4.15,'d','e'
4.74,'d','e'
5.04,'d','e'
4.5,'d','e'
4.21,'d','e'
4.88,'d','e'
3.83,'d','e'
4.98,'d','e'
3.85,'d','e'
4.64,'d','e'
4.87,'d','e'
4.09,'d','e'
4.84,'d','e'
3.87,'d','e'
5.1,'d','e'
4.39,'d','e'
4.7,'d','e'
4.6,'d','e'
5.05,'d','e'
4.65,'d','e'
5.21,'d','e'
4.46,'d','e'
4.74,'d','e'
4.15,'d','e'
4.66,'d','e'
5.06,'d','e'
4.03,'d','e'
3.82,'d','e'
4.56,'d','e'
5.8,'d','e'
4.73,'d','e'
4.52,'d','e'
4.02,'d','e'
3.49,'d','e'
4.8,'d','e'
4.78,'d','e'
4.57,'d','e'
3.66,'d','e'
4.18,'d','e'
4.68,'d','e'
4.54,'d','e'
5.11,'d','e'
3.67,'d','e'
4.65,'d','e'
3.74,'d','e'
4.1,'d','e'
4.78,'d','e'
3.76,'d','e'
4.36,'d','e'
4.33,'d','e'
4.14,'d','e'
5.42,'d','e'
5.63,'d','e'
4.58,'d','e'
4.3,'d','e'
4.55,'d','e'
5.69,'d','e'
4.11,'d','e'
5.05,'d','e'
5.32,'d','e'
3.95,'d','e'
4.49,'d','e'
4.76,'d','e'
5,'d','e'
3.81,'d','e'
5.12,'d','e'
5.08,'d','e'
4.87,'d','e'
4.36,'d','e'
4.4,'d','e'
5.09,'d','e'
3.96,'d','e'
4.71,'d','e'
5.44,'d','e'
5.16,'d','e'
4.63,'d','e'
4.14,'d','e'
5.09,'d','e'
4.95,'d','e'
4.26,'d','e'
4.93,'d','e'
4.89,'d','e'
5.03,'d','e'
4.28,'d','e'
5.22,'d','e'
4.96,'d','e'
4.2,'d','e'
4.12,'d','e'
3.77,'d','e'
4.86,'d','e'
5.3,'d','e'
4.35,'d','e'
4.05,'d','e'
4.89,'d','e'
3.88,'d','e'
4.63,'d','e'
3.79,'d','e'
4.33,'d','e'
4.71,'d','e'
3.81,'d','e'
3.98,'d','e'
5.46,'d','e'
4.21,'d','e'
5.38,'d','e'
4.5,'d','e'
4.02,'d','e'
4.58,'d','e'
5.21,'d','e'
4.64,'d','e'
5.26,'d','e'
4.3,'d','e'
4.28,'d','e'
4.66,'d','e'
4.06,'d','e'
5.17,'d','e'
4.51,'d','e'
4.56,'d','e'
3.7,'d','e'
4.05,'d','e'
4.52,'d','e'
3.75,'d','e'
4.5,'d','e'
5.47,'d','e'
4.35,'d','e'
4.05,'d','e'
4.01,'d','e'
3.06,'d','e'
4.55,'d','e'
5.53,'d','e'
4.39,'d','e'
5.27,'d','e'
3.95,'d','e'
4.93,'d','e'
4.39,'d','e'
4.39,'d','e'
4.47,'d','e'
4.8,'d','e'
4.5,'d','e'
4.69,'d','e'
4.31,'d','e'
4.09,'d','e'
4.55,'d','e'
4.68,'d','e'
3.45,'d','e'
5,'d','e'
4.86,'d','e'
4.17,'d','e'
4,'d','e'
4.6,'d','e'
4.74,'d','e'
4.75,'d','e'
4.42,'d','e'
4.45,'d','e'
4.45,'d','e'
4.3,'d','e'
5.06,'d','e'
3.97,'d','e'
5.37,'d','e'
4.69,'d','e'
4.42,'d','e'
3.49,'d','e'
4.03,'d','e'
3.31,'d','e'
5.19,'d','e'
4.27,'d','e'
5.78,'d','e'
4.51,'d','e'
5.31,'d','e'
5.3,'d','e'
3.87,'d','e'
4.43,'d','e'
4.81,'d','e'
4.3,'d','e'
4.7,'d','e'
4.33,'d','e'
4.05,'d','e'
5.04,'d','e'
4.6,'d','e'
4.61,'d','e'
3.85,'d','e'
4.61,'d','e'
4.95,'d','e'
5.16,'d','e'
4.76,'d','e'
4.76,'d','e'
4.13,'d','e'
4.66,'d','e'
5.51,'d','e'
5.17,'d','e'
5.6,'d','e'
4.18,'d','e'
3.68,'d','e'
4.77,'d','e'
4.04,'d','e'
4.44,'d','e'
5.07,'d','e'
4.28,'d','e'
4.04,'d','e'
4.62,'d','e'
4.71,'d','e'
5.13,'d','e'
4,'d','e'
4.99,'d','e'
5.17,'d','e'
4.6,'d','e'
4.5,'d','e'
5.25,'d','e'
5.1,'d','e'
4.48,'d','e'
4.53,'d','e'
3.82,'d','e'
4.72,'d','e'
2.95,'d','e'
4.62,'d','e'
5.15,'d','e'
4.84,'d','e'
3.69,'d','e'
5.33,'d','e'
5.11,'d','e'
4.45,'d','e'
4.63,'d','e'
4.83,'d','e'
5.34,'d','e'
4.34,'d','e'
4.37,'d','e'
4.31,'d','e'
4.56,'d','e'
3.66,'d','e'
4.99,'d','e'
4.63,'d','e'
4.28,'d','e'
3.88,'d','e'
4.72,'d','e'
3.75,'d','e'
4.45,'d','e'
4.29,'d','e'
4.91,'d','e'
4.72,'d','e'
5.02,'d','e'
4.61,'d','e'
4.38,'d','e'
4.19,'d','e'
4.06,'d','e'
4.42,'d','e'
4.73,'d','e'
4.35,'d','e'
4.26,'d','e'
4.78,'d','e'
3.99,'d','e'
4.94,'d','e'
4.93,'d','e'
4.57,'d','e'
4.2,'d','e'
4.67,'d','e'
3.97,'d','e'
4.62,'d','e'
4.48,'d','e'
4.33,'d','e'
4.78,'d','e'
4.62,'d','e'
4.3,'d','e'
5.31,'d','e'
3.99,'d','e'
4.98,'d','e'
4.03,'d','e'
3.9,'d','e'
4.76,'d','e'
4.35,'d','e'
5.17,'d','e'
4.8,'d','e'
5.21,'d','e'
4.98,'d','e'
4.59,'d','e'
4.79,'d','e'
5.43,'d','e'
4.73,'d','e'
5.23,'d','e'
4.52,'d','e'
3.96,'d','e'
4.59,'d','e'
4.03,'d','e'
5.23,'d','e'
5.57,'d','e'
3.73,'d','e'
4.49,'d','e'
4.01,'d','e'
5.21,'d','e'
3.13,'d','e'
3.18,'d','e'
3.04,'d','e'
4.07,'d','e'
3.36,'d','e'
3.71,'d','e'
2.68,'d','e'
3.21,'d','e'
3.7,'d','e'
3.37,'d','e'
4.81,'d','e'
3.94,'d','e'
3.4,'d','e'
2.8,'d','e'
3.29,'d','e'
4.23,'d','e'
3.77,'d','e'
3.65,'d','e'
3.81,'d','e'
3.42,'d','e'
3.88,'d','e'
4.2,'d','e'
3.85,'d','e'
4.07,'d','e'
2.8,'d','e'
2.76,'d','e'
3.69,'d','e'
2.59,'d','e'
4.43,'d','e'
4.22,'d','e'
3.89,'d','e'
4.03,'d','e'
3.88,'d','e'
3.26,'d','e'
4.38,'d','e'
3.4,'d','e'
3.17,'d','e'
4.34,'d','e'
2.53,'d','e'
2.79,'d','e'
3.09,'d','e'
3.81,'d','e'
3.26,'d','e'
3.43,'d','e'
2.74,'d','e'
3.56,'d','e'
3.47,'d','e'
3.25,'d','e'
3.58,'d','e'
3.76,'d','e'
3.72,'d','e'
3.46,'d','e'
3.48,'d','e'
2.33,'d','e'
3.47,'d','e'
2.82,'d','e'
3.38,'d','e'
2.63,'d','e'
3.83,'d','e'
3.4,'d','e'
3.97,'d','e'
3.6,'d','e'
3.45,'d','e'
3.77,'d','e'
3.23,'d','e'
4.31,'d','e'
3.24,'d','e'
3.13,'d','e'
4.52,'d','e'
3.2,'d','e'
4.28,'d','e'
2.9,'d','e'
3.6,'d','e'
3.74,'d','e'
4.07,'d','e'
3.95,'d','e'
3.37,'d','e'
4.39,'d','e'
3.63,'d','e'
2.58,'d','e'
3.58,'d','e'
3.26,'d','e'
2.62,'d','e'
3.09,'d','e'
3.5,'d','e'
2.68,'d','e'
3.27,'d','e'
3.13,'d','e'
3.05,'d','e'
2.43,'d','e'
3.07,'d','e'
3.08,'d','e'
3.94,'d','e'
4.37,'d','e'
4.42,'d','e'
2.98,'d','e'
4.35,'d','e'
3.36,'d','e'
3.11,'d','e'
3.98,'d','e'
4.16,'d','e'
3.64,'d','e'
4.03,'d','e'
3.51,'d','e'
4.69,'d','e'
3.61,'d','e'
3.17,'d','e'
3.55,'d','e'
3.67,'d','e'
4.04,'d','e'
3.24,'d','e'
3.45,'d','e'
4.02,'d','e'
3.58,'d','e'
4.27,'d','e'
4.05,'d','e'
3.29,'d','e'
4.22,'d','e'
2.67,'d','e'
3.88,'d','e'
4.09,'d','e'
3.09,'d','e'
3.22,'d','e'
3.08,'d','e'
2.42,'d','e'
3.29,'d','e'
4.05,'d','e'
3.61,'d','e'
3.27,'d','e'
2.72,'d','e'
4.41,'d','e'
2.54,'d','e'
3.94,'d','e'
3.65,'d','e'
3.06,'d','e'
2.51,'d','e'
4.58,'d','e'
3.78,'d','e'
3.91,'d','e'
2.94,'d','e'
3.39,'d','e'
3.22,'d','e'
2.8,'d','e'
2.5,'d','e'
2.77,'d','e'
3.37,'d','e'
2.75,'d','e'
3.57,'d','e'
3.51,'d','e'
3.28,'d','e'
4.55,'d','e'
2.54,'d','e'
4.06,'d','e'
3.14,'d','e'
3.44,'d','e'
4.16,'d','e'
3.55,'d','e'
3.01,'d','e'
3,'d','e'
3.67,'d','e'
4.06,'d','e'
3.46,'d','e'
4.02,'d','e'
3.72,'d','e'
4.07,'d','e'
3.74,'d','e'
3.26,'d','e'
2.57,'d','e'
4.04,'d','e'
4,'d','e'
4.07,'d','e'
3.92,'d','e'
3.32,'d','e'
4,'d','e'
3.99,'d','e'
3.27,'d','e'
4.21,'d','e'
3.48,'d','e'
3.87,'d','e'
3.61,'d','e'
2.9,'d','e'
3.3,'d','e'
3.61,'d','e'
3.59,'d','e'
3.94,'d','e'
2.88,'d','e'
3.09,'d','e'
4.13,'d','e'
2.87,'d','e'
3.02,'d','e'
3.53,'d','e'
3.48,'d','e'
4.45,'d','e'
3.75,'d','e'
3.49,'d','e'
3.6,'d','e'
3.08,'d','e'
2.61,'d','e'
4.5,'d','e'
3.52,'d','e'
3.64,'d','e'
3.58,'d','e'
3.29,'d','e'
2.52,'d','e'
3.84,'d','e'
3.12,'d','e'
3.68,'d','e'
3.86,'d','e'
4.34,'d','e'
3.32,'d','e'
3.6,'d','e'
4.04,'d','e'
3.73,'d','e'
4.13,'d','e'
3.47,'d','e'
3.65,'d','e'
3.63,'d','e'
3.62,'d','e'
2.99,'d','e'
3.29,'d','e'
3.33,'d','e'
3.32,'d','e'
3.67,'d','e'
3.13,'d','e'
3.89,'d','e'
4.01,'d','e'
3.33,'d','e'
4.29,'d','e'
3.4,'d','e'
3.85,'d','e'
4.04,'d','e'
3.34,'d','e'
3.3,'d','e'
3.85,'d','e'
3.3,'d','e'
2.82,'d','e'
4.02,'d','e'
2.8,'d','e'
2.15,'d','e'
3,'d','e'
4.22,'d','e'
3.51,'d','e'
3.43,'d','e'
3.25,'d','e'
3.8,'d','e'
2.43,'d','e'
3.63,'d','e'
3.2,'d','e'
3.96,'d','e'
2.95,'d','e'
3.49,'d','e'
3.03,'d','e'
3.42,'d','e'
2.54,'d','e'
3.38,'d','e'
3.35,'d','e'
3.35,'d','e'
4.14,'d','e'
3,'d','e'
3.48,'d','e'
4.4,'d','e'
3.31,'d','e'
3.21,'d','e'
3.55,'d','e'
3.21,'d','e'
3.22,'d','e'
3.22,'d','e'
3.26,'d','e'
2.89,'d','e'
2.54,'d','e'
3.55,'d','e'
3.39,'d','e'
3.49,'d','e'
3.28,'d','e'
3.04,'d','e'
4.24,'d','e'
2.93,'d','e'
3.42,'d','e'
3.63,'d','e'
4.21,'d','e'
3.44,'d','e'
3.1,'d','e'
3.48,'d','e'
3.3,'d','e'
3.31,'d','e'
2.71,'d','e'
3.76,'d','e'
2.78,'d','e'
2.63,'d','e'
3.63,'d','e'
4.24,'d','e'
3.73,'d','e'
3.94,'d','e'
3.89,'d','e'
3,'d','e'
3.88,'d','e'
3.14,'d','e'
3.56,'d','e'
3.41,'d','e'
3.03,'d','e'
3.08,'d','e'
2.89,'d','e'
3.44,'d','e'
2.46,'d','e'
4.23,'d','e'
4.08,'d','e'
3.05,'d','e'
4.2,'d','e'
2.89,'d','e'
3.22,'d','e'
3.96,'d','e'
4.1,'d','e'
3.89,'d','e'
2.86,'d','e'
3.92,'d','e'
3.29,'d','e'
3.84,'d','e'
4.39,'d','e'
3.5,'d','e'
3.51,'d','e'
2.69,'d','e'
3.35,'d','e'
3.68,'d','e'
3.27,'d','e'
3.86,'d','e'
3.65,'d','e'
2.87,'d','e'
3.54,'d','e'
3.48,'d','e'
3.84,'d','e'
2.8,'d','e'
4.29,'d','e'
3.77,'d','e'
3.74,'d','e'
3.17,'d','e'
4.65,'d','e'
3.57,'d','e'
3.66,'d','e'
3.72,'d','e'
2.65,'d','e'
4.08,'d','e'
3.58,'d','e'
3.55,'d','e'
3.82,'d','e'
3.92,'d','e'
3.6,'d','e'
3.37,'d','e'
3.38,'d','e'
4.07,'d','e'
4.41,'d','e'
2.54,'d','e'
3.93,'d','e'
3.24,'d','e'
1.42,'g','p'
1.44,'g','p'
1.12,'g','p'
1.86,'g','p'
1.78,'g','p'
1.32,'g','p'
1.31,'g','p'
1.34,'g','p'
1.55,'g','p'
1.59,'g','p'
1.82,'g','p'
1.82,'g','p'
1.76,'g','p'
1.47,'g','p'
1.25,'g','p'
1.54,'g','p'
1.78,'g','p'
1.66,'g','p'
1.52,'g','p'
1.42,'g','p'
1.21,'g','p'
1.42,'g','p'
1.56,'g','p'
1.62,'g','p'
1.43,'g','p'
1.45,'g','p'
1.38,'g','p'
1.56,'g','p'
1.42,'g','p'
1.33,'g','p'
1.43,'g','p'
1.34,'g','p'
1.32,'g','p'
1.53,'g','p'
1.66,'g','p'
1.53,'g','p'
1.39,'g','p'
1.47,'g','p'
1.4,'g','p'
1.71,'g','p'
1.49,'g','p'
1.65,'g','p'
1.57,'g','p'
1.37,'g','p'
1.36,'g','p'
1.71,'g','p'
1.74,'g','p'
1.76,'g','p'
1.41,'g','p'
1.37,'g','p'
1.63,'g','p'
1.68,'g','p'
1.66,'g','p'
1.75,'g','p'
1.19,'g','p'
1.48,'g','p'
1.4,'g','p'
1.92,'g','p'
1.65,'g','p'
1.27,'g','p'
1.57,'g','p'
1.39,'g','p'
1.54,'g','p'
1.51,'g','p'
1.66,'g','p'
1.6,'g','p'
1.51,'g','p'
1.85,'g','p'
1.44,'g','p'
1.46,'g','p'
1.49,'g','p'
1.56,'g','p'
1.57,'g','p'
1.42,'g','p'
1.35,'g','p'
1.79,'g','p'
1.35,'g','p'
1.48,'g','p'
1.24,'g','p'
1.5,'g','p'
1.57,'g','p'
1.61,'g','p'
1.63,'g','p'
1.66,'g','p'
1.58,'g','p'
1.4,'g','p'
1.8,'g','p'
1.69,'g','p'
1.66,'g','p'
1.51,'g','p'
1.42,'g','p'
1.72,'g','p'
1.76,'g','p'
1.69,'g','p'
1.47,'g','p'
1.49,'g','p'
1.15,'g','p'
1.5,'g','p'
1.49,'g','p'
1.72,'g','p'
1.75,'g','p'
1.54,'g','p'
1.34,'g','p'
1.61,'g','p'
1.5,'g','p'
1.45,'g','p'
1.8,'g','p'
1.4,'g','p'
1.27,'g','p'
1.56,'g','p'
1.69,'g','p'
1.47,'g','p'
1.47,'g','p'
1.86,'g','p'
1.31,'g','p'
1.49,'g','p'
1.44,'g','p'
1.61,'g','p'
1.18,'g','p'
1.29,'g','p'
1.58,'g','p'
1.25,'g','p'
1.39,'g','p'
1.54,'g','p'
1.17,'g','p'
1.66,'g','p'
1.67,'g','p'
1.57,'g','p'
1.91,'g','p'
1.49,'g','p'
1.58,'g','p'
1.4,'g','p'
1.54,'g','p'
1.33,'g','p'
1.85,'g','p'
1.53,'g','p'
1.54,'g','p'
1.75,'g','p'
1.61,'g','p'
1.41,'g','p'
1.41,'g','p'
1.82,'g','p'
1.51,'g','p'
1.39,'g','p'
1.36,'g','p'
1.38,'g','p'
1.51,'g','p'
1.67,'g','p'
1.65,'g','p'
1.41,'g','p'
1.55,'g','p'
1.79,'g','p'
1.49,'g','p'
1.67,'g','p'
1.45,'g','p'
1.39,'g','p'
1.39,'g','p'
1.58,'g','p'
1.68,'g','p'
1.68,'g','p'
1.72,'g','p'
1.37,'g','p'
1.69,'g','p'
1.49,'g','p'
1.67,'g','p'
1.41,'g','p'
1.29,'g','p'
1.28,'g','p'
1.38,'g','p'
1.62,'g','p'
1.45,'g','p'
1.73,'g','p'
1.59,'g','p'
1.4,'g','p'
1.25,'g','p'
1.43,'g','p'
1.49,'g','p'
1.45,'g','p'
1.43,'g','p'
1.37,'g','p'
1.53,'g','p'
1.62,'g','p'
1.52,'g','p'
1.52,'g','p'
1.58,'g','p'
1.5,'g','p'
1.6,'g','p'
1.32,'g','p'
1.59,'g','p'
1.32,'g','p'
1.7,'g','p'
1.62,'g','p'
1.57,'g','p'
1.28,'g','p'
1.54,'g','p'
1.49,'g','p'
1.58,'g','p'
1.35,'g','p'
1.42,'g','p'
1.24,'g','p'
1.51,'g','p'
1.47,'g','p'
1.43,'g','p'
1.31,'g','p'
1.65,'g','p'
1.65,'g','p'
1.59,'g','p'
1.57,'g','p'
1.65,'g','p'
1.05,'g','p'
1.78,'g','p'
1.35,'g','p'
1.36,'g','p'
1.62,'g','p'
1.49,'g','p'
1.49,'g','p'
1.65,'g','p'
1.47,'g','p'
1.64,'g','p'
1.81,'g','p'
1.9,'g','p'
1.45,'g','p'
1.56,'g','p'
1.14,'g','p'
1.32,'g','p'
1.48,'g','p'
1.46,'g','p'
1.39,'g','p'
1.15,'g','p'
1.82,'g','p'
1.51,'g','p'
1.44,'g','p'
1.27,'g','p'
1.5,'g','p'
1.51,'g','p'
1.79,'g','p'
1.65,'g','p'
1.61,'g','p'
1.34,'g','p'
1.4,'g','p'
1.58,'g','p'
1.66,'g','p'
1.18,'g','p'
1.52,'g','p'
1.34,'g','p'
1.54,'g','p'
1.41,'g','p'
1.38,'g','p'
1.59,'g','p'
1.44,'g','p'
1.43,'g','p'
1.62,'g','p'
1.33,'g','p'
1.46,'g','p'
1.75,'g','p'
1.26,'g','p'
1.41,'g','p'
1.59,'g','p'
1.21,'g','p'
1.69,'g','p'
1.51,'g','p'
1.47,'g','p'
1.28,'g','p'
1.35,'g','p'
1.48,'g','p'
1.31,'g','p'
1.55,'g','p'
1.14,'g','p'
1.48,'g','p'
1.49,'g','p'
1.33,'g','p'
1.8,'g','p'
1.63,'g','p'
1.79,'g','p'
1.57,'g','p'
1.64,'g','p'
1.58,'g','p'
1.53,'g','p'
1.27,'g','p'
1.69,'g','p'
1.33,'g','p'
1.43,'g','p'
1.55,'g','p'
1.59,'g','p'
1.6,'g','p'
1.37,'g','p'
1.52,'g','p'
1.27,'g','p'
1.57,'g','p'
1.35,'g','p'
1.53,'g','p'
1.7,'g','p'
1.44,'g','p'
1.51,'g','p'
1.45,'g','p'
1.48,'g','p'
1.91,'g','p'
1.44,'g','p'
1.56,'g','p'
1.36,'g','p'
1.53,'g','p'
1.45,'g','p'
1.66,'g','p'
1.29,'g','p'
1.99,'g','p'
1.3,'g','p'
1.56,'g','p'
1.59,'g','p'
1.29,'g','p'
1.63,'g','p'
1.87,'g','p'
1.33,'g','p'
1.53,'g','p'
1.76,'g','p'
1.36,'g','p'
1.82,'g','p'
1.68,'g','p'
1.56,'g','p'
1.59,'g','p'
1.4,'g','p'
1.3,'g','p'
1.32,'g','p'
1.47,'g','p'
1.41,'g','p'
1.64,'g','p'
1.63,'g','p'
1.53,'g','p'
1.37,'g','p'
1.71,'g','p'
1.61,'g','p'
1.39,'g','p'
1.29,'g','p'
1.31,'g','p'
1.44,'g','p'
1.74,'g','p'
1.61,'g','p'
1.4,'g','p'
1.22,'g','p'
1.48,'g','p'
1.47,'g','p'
1.62,'g','p'
1.67,'g','p'
1.76,'g','p'
1.4,'g','p'
1.17,'g','p'
1.88,'g','p'
1.59,'g','p'
1.55,'g','p'
1.78,'g','p'
1.52,'g','p'
1.78,'g','p'
1.57,'g','p'
1.73,'g','p'
2.81,'g','p'
3.33,'g','p'
3.51,'g','p'
2.93,'g','p'
2.9,'g','p'
2.94,'g','p'
2.49,'g','p'
3.11,'g','p'
3.09,'g','p'
2.56,'g','p'
3.71,'g','p'
2.86,'g','p'
3.59,'g','p'
3.39,'g','p'
3.79,'g','p'
2.51,'g','p'
3.47,'g','p'
3.12,'g','p'
2.97,'g','p'
2.99,'g','p'
2.83,'g','p'
2.91,'g','p'
3.45,'g','p'
3,'g','p'
3.02,'g','p'
3.14,'g','p'
3.42,'g','p'
3.05,'g','p'
3.35,'g','p'
2.74,'g','p'
3.06,'g','p'
2.68,'g','p'
3.17,'g','p'
2.96,'g','p'
3.45,'g','p'
2.66,'g','p'
2.96,'g','p'
3.31,'g','p'
3.33,'g','p'
2.96,'g','p'
2.3,'g','p'
3.19,'g','p'
3.01,'g','p'
2.97,'g','p'
2.59,'g','p'
3.15,'g','p'
2.98,'g','p'
2.89,'g','p'
3.24,'g','p'
2.78,'g','p'
2.51,'g','p'
3.5,'g','p'
3.51,'g','p'
2.95,'g','p'
3.23,'g','p'
3.6,'g','p'
2.82,'g','p'
3.25,'g','p'
2.85,'g','p'
3.27,'g','p'
3.05,'g','p'
3.06,'g','p'
3.13,'g','p'
3.24,'g','p'
3.12,'g','p'
2.61,'g','p'
3.1,'g','p'
2.81,'g','p'
2.44,'g','p'
3.23,'g','p'
3.11,'g','p'
2.92,'g','p'
3.18,'g','p'
3,'g','p'
2.98,'g','p'
2.97,'g','p'
3.02,'g','p'
3.11,'g','p'
3,'g','p'
2.78,'g','p'
2.5,'g','p'
3.16,'g','p'
2.9,'g','p'
3.63,'g','p'
3.32,'g','p'
2.96,'g','p'
2.74,'g','p'
3.13,'g','p'
3.31,'g','p'
3.12,'g','p'
2.87,'g','p'
2.28,'g','p'
3.54,'g','p'
3.29,'g','p'
3.27,'g','p'
3.25,'g','p'
2.41,'g','p'
3.29,'g','p'
2.98,'g','p'
3.3,'g','p'
2.92,'g','p'
3.01,'g','p'
2.21,'g','p'
2.84,'g','p'
2.95,'g','p'
3.67,'g','p'
2.82,'g','p'
3.41,'g','p'
3.56,'g','p'
2.43,'g','p'
2.26,'g','p'
3.2,'g','p'
3.2,'g','p'
3.5,'g','p'
3.05,'g','p'
2.87,'g','p'
2.91,'g','p'
2.84,'g','p'
4.03,'g','p'
3.52,'g','p'
2.99,'g','p'
3.62,'g','p'
3.21,'g','p'
3.11,'g','p'
2.89,'g','p'
3.12,'g','p'
2.94,'g','p'
2.79,'g','p'
2.82,'g','p'
3.03,'g','p'
3.08,'g','p'
2.14,'g','p'
3.03,'g','p'
2.74,'g','p'
2.67,'g','p'
2.76,'g','p'
3.13,'g','p'
3.44,'g','p'
2.91,'g','p'
3.28,'g','p'
3.27,'g','p'
2.75,'g','p'
2.87,'g','p'
3.05,'g','p'
2.49,'g','p'
2.72,'g','p'
3.7,'g','p'
2.92,'g','p'
3.07,'g','p'
3.11,'g','p'
3.33,'g','p'
2.96,'g','p'
3.08,'g','p'
3.81,'g','p'
2.83,'g','p'
2.83,'g','p'
3.08,'g','p'
2.96,'g','p'
3.27,'g','p'
2.45,'g','p'
2.99,'g','p'
2.72,'g','p'
3.1,'g','p'
2.9,'g','p'
3.01,'g','p'
3.09,'g','p'
3.21,'g','p'
3.62,'g','p'
3.56,'g','p'
2.55,'g','p'
3.32,'g','p'
3.27,'g','p'
3.16,'g','p'
3.12,'g','p'
3.64,'g','p'
3.32,'g','p'
3.03,'g','p'
2.79,'g','p'
3.22,'g','p'
2.83,'g','p'
2.91,'g','p'
2.6,'g','p'
2.07,'g','p'
2.87,'g','p'
2.67,'g','p'
2.69,'g','p'
3.08,'g','p'
3.38,'g','p'
3.15,'g','p'
2.94,'g','p'
2.91,'g','p'
2.35,'g','p'
3.18,'g','p'
3.09,'g','p'
3.6,'g','p'
3.07,'g','p'
2.69,'g','p'
2.64,'g','p'
3.23,'g','p'
3.53,'g','p'
2.54,'g','p'
3.21,'g','p'
2.97,'g','p'
2.54,'g','p'
3.87,'g','p'
3.07,'g','p'
3.22,'g','p'
3.09,'g','p'
2.76,'g','p'
2.54,'g','p'
3.47,'g','p'
3.27,'g','p'
2.65,'g','p'
3.06,'g','p'
2.48,'g','p'
3.41,'g','p'
2.95,'g','p'
2.92,'g','p'
2.65,'g','p'
2.61,'g','p'
3.03,'g','p'
3.28,'g','p'
3.55,'g','p'
3.09,'g','p'
2.69,'g','p'
2.47,'g','p'
2.74,'g','p'
2.78,'g','p'
3.6,'g','p'
2.57,'g','p'
2.45,'g','p'
2.95,'g','p'
3.35,'g','p'
2.66,'g','p'
2.71,'g','p'
3.21,'g','p'
3.41,'g','p'
2.97,'g','p'
3.95,'g','p'
2.82,'g','p'
2.81,'g','p'
2.51,'g','p'
2.29,'g','p'
3.35,'g','p'
2.57,'g','p'
2.77,'g','p'
2.74,'g','p'
3.1,'g','p'
3.42,'g','p'
3.32,'g','p'
2.6,'g','p'
3.04,'g','p'
3.46,'g','p'
3.05,'g','p'
2.97,'g','p'
2.5,'g','p'
2.76,'g','p'
3.25,'g','p'
2.58,'g','p'
2.74,'g','p'
3.35,'g','p'
3.07,'g','p'
2.48,'g','p'
3.36,'g','p'
3.1,'g','p'
3.66,'g','p'
3.01,'g','p'
3.05,'g','p'
2.99,'g','p'
3.38,'g','p'
3.1,'g','p'
2.84,'g','p'
2.94,'g','p'
3.23,'g','p'
3.27,'g','p'
3.16,'g','p'
3.02,'g','p'
3.59,'g','p'
3.3,'g','p'
2.58,'g','p'
2.64,'g','p'
2.69,'g','p'
3.17,'g','p'
2.88,'g','p'
2.78,'g','p'
2.86,'g','p'
2.97,'g','p'
2.96,'g','p'
2.96,'g','p'
3.47,'g','p'
2.99,'g','p'
3.37,'g','p'
3.39,'g','p'
2.53,'g','p'
3.08,'g','p'
2.77,'g','p'
2.5,'g','p'
3.07,'g','p'
3.3,'g','p'
3.49,'g','p'
2.79,'g','p'
3.13,'g','p'
2.94,'g','p'
2.44,'g','p'
3.2,'g','p'
2.97,'g','p'
3.53,'g','p'
2.6,'g','p'
3.22,'g','p'
3.09,'g','p'
3.01,'g','p'
3.11,'g','p'
3.23,'g','p'
2.92,'g','p'
3.18,'g','p'
2.88,'g','p'
2.9,'g','p'
2.41,'g','p'
3.05,'g','p'
3.29,'g','p'
2.51,'g','p'
2.65,'g','p'
3.07,'g','p'
3.19,'g','p'
3.08,'g','p'
3.18,'g','p'
2.9,'g','p'
3.04,'g','p'
2.99,'g','p'
2.88,'g','p'
3.35,'g','p'
3.07,'g','p'
3.18,'g','p'
2.62,'g','p'
2.99,'g','p'
3.17,'g','p'
3.11,'g','p'
3.6,'g','p'
3.02,'g','p'
3.26,'g','p'
2.73,'g','p'
2.94,'g','p'
3.13,'g','p'
3,'g','p'
3.04,'g','p'
2.46,'g','p'
3.39,'g','p'
3,'g','p'
3.11,'g','p'
3.06,'g','p'
2.88,'g','p'
2.53,'g','p'
2.21,'g','p'
4.37,'g','p'
3.24,'g','p'
2.9,'g','p'
5.18,'g','p'
4.37,'g','p'
4.09,'g','p'
3.19,'g','p'
2.95,'g','p'
4.46,'g','p'
3.86,'g','p'
4.8,'g','p'
5.18,'g','p'
5.05,'g','p'
4.13,'g','p'
5.32,'g','p'
3.79,'g','p'
2.71,'g','p'
4.73,'g','p'
2.86,'g','p'
3.95,'g','p'
4.47,'g','p'
3.69,'g','p'
3.22,'g','p'
4.84,'g','p'
3.91,'g','p'
3.73,'g','p'
3.4,'g','p'
5.3,'g','p'
3.51,'g','p'
3.95,'g','p'
4.11,'g','p'
3.88,'g','p'
4.48,'g','p'
4.73,'g','p'
3.39,'g','p'
5.38,'g','p'
4.47,'g','p'
3.28,'g','p'
4.3,'g','p'
4.62,'g','p'
2.89,'g','p'
3.79,'g','p'
4.24,'g','p'
4.09,'g','p'
3.88,'g','p'
4.39,'g','p'
2.46,'g','p'
3.08,'g','p'
3.79,'g','p'
4.22,'g','p'
3.14,'g','p'
5.02,'g','p'
4.3,'g','p'
3.9,'g','p'
3.56,'g','p'
4.83,'g','p'
3.43,'g','p'
4,'g','p'
3.35,'g','p'
3.8,'g','p'
3.61,'g','p'
4.8,'g','p'
4.12,'g','p'
3.06,'g','p'
5.72,'g','p'
3.29,'g','p'
3.94,'g','p'
4.38,'g','p'
1.89,'g','p'
3.52,'g','p'
2.78,'g','p'
4.08,'g','p'
3.9,'g','p'
4.95,'g','p'
4.2,'g','p'
3.05,'g','p'
4.61,'g','p'
2.94,'g','p'
3.09,'g','p'
5.27,'g','p'
4.98,'g','p'
3.59,'g','p'
3.98,'g','p'
3.64,'g','p'
4.85,'g','p'
4.82,'g','p'
2.9,'g','p'
3.51,'g','p'
5.62,'g','p'
4.22,'g','p'
4.55,'g','p'
5.2,'g','p'
3.61,'g','p'
3.81,'g','p'
4.44,'g','p'
3.65,'g','p'
4.63,'g','p'
4.54,'g','p'
4.67,'g','p'
6.21,'g','p'
4.08,'g','p'
5,'g','p'
3.53,'g','p'
3.93,'g','p'
4.29,'g','p'
4.55,'g','p'
4.29,'g','p'
3.25,'g','p'
4.38,'g','p'
3.92,'g','p'
3.62,'g','p'
2.94,'g','p'
4.24,'g','p'
3.24,'g','p'
3.08,'g','p'
4.56,'g','p'
5.14,'g','p'
4.16,'g','p'
4.42,'g','p'
3.86,'g','p'
4.53,'g','p'
4.59,'g','p'
4.24,'g','p'
3.58,'g','p'
5.24,'g','p'
4.91,'g','p'
3.16,'g','p'
4.16,'g','p'
3.06,'g','p'
2.94,'g','p'
4.96,'g','p'
3.42,'g','p'
3.64,'g','p'
3.92,'g','p'
2.89,'g','p'
3.05,'g','p'
4.21,'g','p'
2.85,'g','p'
4.91,'g','p'
4.1,'g','p'
4.27,'g','p'
2.64,'g','p'
4.22,'g','p'
4.57,'g','p'
2.83,'g','p'
4.15,'g','p'
3.1,'g','p'
3.9,'g','p'
3.8,'g','p'
4.4,'g','p'
4.68,'g','p'
3.4,'g','p'
2.34,'g','p'
4.06,'g','p'
3.29,'g','p'
3.73,'g','p'
4.53,'g','p'
3.32,'g','p'
4.74,'g','p'
3.54,'g','p'
3.6,'g','p'
4.8,'g','p'
4.51,'g','p'
4.26,'g','p'
3.15,'g','p'
3.13,'g','p'
4.51,'g','p'
3.33,'g','p'
4.13,'g','p'
4.34,'g','p'
3.23,'g','p'
3.66,'g','p'
4.62,'g','p'
3.83,'g','p'
2.9,'g','p'
3.66,'g','p'
3.13,'g','p'
4.64,'g','p'
3.37,'g','p'
3.36,'g','p'
5.02,'g','p'
4.07,'g','p'
5.11,'g','p'
3.98,'g','p'
3.09,'g','p'
3.64,'g','p'
3.78,'g','p'
5.51,'g','p'
4.05,'g','p'
4.31,'g','p'
4.59,'g','p'
4.89,'g','p'
4.61,'g','p'
2.67,'g','p'
4.11,'g','p'
4.02,'g','p'
3.39,'g','p'
3.08,'g','p'
2.71,'g','p'
3.5,'g','p'
4.57,'g','p'
4.17,'g','p'
2.59,'g','p'
4.16,'g','p'
4.56,'g','p'
4.7,'g','p'
4.29,'g','p'
4.52,'g','p'
3.92,'g','p'
4.03,'g','p'
3.07,'g','p'
5.29,'g','p'
3.32,'g','p'
4.31,'g','p'
4.35,'g','p'
3.75,'g','p'
4.54,'g','p'
3.04,'g','p'
3.78,'g','p'
3.33,'g','p'
3.03,'g','p'
3.28,'g','p'
3.52,'g','p'
3.53,'g','p'
3.6,'g','p'
3.4,'g','p'
3.34,'g','p'
3.99,'g','p'
4.86,'g','p'
3.78,'g','p'
3.38,'g','p'
3.08,'g','p'
3.63,'g','p'
5.11,'g','p'
3.8,'g','p'
4.57,'g','p'
3.59,'g','p'
2.96,'g','p'
3.25,'g','p'
5.08,'g','p'
3.26,'g','p'
4.28,'g','p'
5.2,'g','p'
5.28,'g','p'
2.73,'g','p'
3.93,'g','p'
3.44,'g','p'
3.16,'g','p'
4.2,'g','p'
4.23,'g','p'
2.71,'g','p'
3.24,'g','p'
5.11,'g','p'
3.24,'g','p'
5.55,'g','p'
4.09,'g','p'
3.54,'g','p'
4.73,'g','p'
3.64,'g','p'
4.45,'g','p'
3.7,'g','p'
4.52,'g','p'
4.6,'g','p'
4.27,'g','p'
3.29,'g','p'
3.24,'g','p'
3.7,'g','p'
4.26,'g','p'
5,'g','p'
3.21,'g','p'
4.05,'g','p'
4.15,'g','p'
4.48,'g','p'
3.09,'g','p'
2.68,'g','p'
4.7,'g','p'
4.01,'g','p'
5.23,'g','p'
3.75,'g','p'
3.96,'g','p'
4.52,'g','p'
3.49,'g','p'
3.89,'g','p'
2.85,'g','p'
3.66,'g','p'
3.61,'g','p'
2.46,'g','p'
4.44,'g','p'
3.73,'g','p'
4.01,'g','p'
5.11,'g','p'
4.1,'g','p'
3.99,'g','p'
4.28,'g','p'
4.64,'g','p'
3.71,'g','p'
6.15,'g','p'
3.28,'g','p'
4.33,'g','p'
3.26,'g','p'
4.34,'g','p'
4.62,'g','p'
4.5,'g','p'
4.83,'g','p'
3.38,'g','p'
3.61,'g','p'
3.83,'g','p'
2.89,'g','p'
3.62,'g','p'
3.18,'g','p'
3.1,'g','p'
4.6,'g','p'
5.03,'g','p'
4.5,'g','p'
5.48,'g','p'
3.65,'g','p'
4.51,'g','p'
3.43,'g','p'
4.88,'g','p'
4.22,'g','p'
3.46,'g','p'
4.34,'g','p'
3.67,'g','p'
4.73,'g','p'
3.74,'g','p'
4.17,'g','p'
3.57,'g','p'
5.09,'g','p'
4.39,'g','p'
3.26,'g','p'
2.89,'g','p'
5.41,'g','p'
4.94,'g','p'
4.17,'g','p'
4.74,'g','p'
4.01,'g','p'
5.08,'g','p'
3.89,'g','p'
4.49,'g','p'
3.05,'g','p'
5.29,'g','p'
4.09,'g','p'
3.53,'g','p'
3.4,'g','p'
3.69,'g','p'
5.45,'g','p'
4.95,'g','p'
3.94,'g','p'
4.41,'g','p'
5,'g','p'
3.52,'g','p'
4.46,'g','p'
2.54,'g','p'
6.91,'g','p'
6.65,'d','p'
7.95,'g','p'
7.59,'g','p'
7.25,'d','p'
6.95,'d','p'
6.54,'g','p'
8.55,'d','p'
6.39,'d','p'
7.53,'d','p'
6.62,'d','p'
8.12,'g','p'
7.33,'g','p'
8.38,'d','p'
6.8,'g','p'
7.62,'g','p'
8.21,'d','p'
6.39,'d','p'
7.54,'g','p'
8.41,'g','p'
7.65,'d','p'
8.73,'g','p'
6.37,'d','p'
7.53,'g','p'
7.31,'d','p'
7.31,'d','p'
7.69,'g','p'
7.67,'g','p'
7.93,'g','p'
8.95,'d','p'
6.66,'d','p'
7.88,'d','p'
6.34,'d','p'
6.99,'d','p'
9.07,'d','p'
6.41,'g','p'
6.97,'d','p'
7.76,'d','p'
5.27,'g','p'
6.97,'g','p'
6.78,'d','p'
6.93,'d','p'
6.77,'d','p'
7.55,'g','p'
7.16,'g','p'
6.24,'d','p'
9.41,'d','p'
7.4,'d','p'
7.45,'d','p'
8.45,'d','p'
6.43,'g','p'
6.38,'d','p'
5.89,'g','p'
7,'g','p'
8.22,'d','p'
5.84,'g','p'
6.23,'d','p'
7.83,'d','p'
8.78,'g','p'
7.31,'d','p'
6.64,'d','p'
6.75,'d','p'
7.59,'d','p'
7.13,'g','p'
7.84,'d','p'
8.65,'d','p'
7.86,'g','p'
7.57,'d','p'
7.19,'g','p'
7.35,'g','p'
7.56,'d','p'
7.23,'g','p'
6.96,'g','p'
6.59,'g','p'
8.5,'d','p'
6.55,'d','p'
8.16,'d','p'
7.84,'d','p'
7.02,'g','p'
7.49,'d','p'
6.69,'d','p'
6.27,'g','p'
7.25,'g','p'
8.28,'d','p'
7.96,'g','p'
6.66,'d','p'
8.67,'g','p'
7.23,'d','p'
8.65,'g','p'
6.86,'d','p'
6.94,'g','p'
7.18,'g','p'
8.2,'d','p'
6.75,'d','p'
7.55,'d','p'
6.56,'d','p'
7.33,'d','p'
8.32,'d','p'
9.76,'g','p'
7.87,'d','p'
6.33,'d','p'
7.67,'d','p'
5.76,'d','p'
8.38,'g','p'
7.52,'g','p'
8.25,'g','p'
6.19,'d','p'
4.91,'d','p'
7.12,'d','p'
7.18,'d','p'
5.85,'g','p'
8.49,'g','p'
6.95,'d','p'
7.31,'g','p'
7.39,'g','p'
6.83,'g','p'
7.49,'g','p'
7.34,'g','p'
8.26,'d','p'
6.32,'d','p'
7.83,'g','p'
7.4,'d','p'
7.44,'d','p'
8.64,'g','p'
5.8,'g','p'
7.33,'g','p'
7.98,'g','p'
7.88,'d','p'
7.27,'g','p'
6.41,'g','p'
8.29,'d','p'
6.61,'g','p'
8.3,'d','p'
8.01,'d','p'
6.49,'g','p'
7.75,'g','p'
8.07,'g','p'
9.16,'d','p'
7.74,'g','p'
8.13,'d','p'
8.18,'g','p'
6.41,'g','p'
6.52,'d','p'
8.15,'d','p'
7.55,'g','p'
7.59,'g','p'
6.72,'g','p'
8.52,'g','p'
7.03,'g','p'
7.12,'d','p'
8.29,'g','p'
7.75,'d','p'
8.68,'g','p'
8.07,'g','p'
6.4,'d','p'
7.07,'d','p'
6.78,'g','p'
8.67,'d','p'
6.97,'g','p'
7.85,'d','p'
6.66,'g','p'
6.13,'d','p'
7.95,'g','p'
5.92,'d','p'
7.35,'d','p'
7.66,'d','p'
7.68,'g','p'
9.36,'g','p'
8.23,'d','p'
8.25,'g','p'
7.31,'g','p'
8.01,'g','p'
8,'g','p'
7.08,'g','p'
7.42,'g','p'
7.05,'g','p'
6.94,'g','p'
7.94,'d','p'
8.46,'g','p'
8.53,'g','p'
7.05,'g','p'
7.57,'d','p'
7.35,'g','p'
8.17,'g','p'
6.61,'d','p'
6.96,'g','p'
7.1,'d','p'
8.21,'g','p'
7.14,'g','p'
7.12,'g','p'
7.26,'d','p'
6.98,'g','p'
7.67,'d','p'
6.97,'d','p'
8.75,'g','p'
5.84,'d','p'
6.43,'d','p'
8.27,'d','p'
6.55,'d','p'
8.75,'d','p'
7.44,'g','p'
6.76,'g','p'
8.66,'g','p'
7.26,'g','p'
7.84,'d','p'
7.68,'d','p'
6.36,'d','p'
7.64,'d','p'
7.86,'d','p'
7.53,'d','p'
7.99,'d','p'
7.25,'g','p'
6.96,'g','p'
7.49,'d','p'
8.71,'d','p'
6.97,'d','p'
8.15,'g','p'
7.76,'d','p'
6.95,'d','p'
8.69,'d','p'
5.68,'d','p'
6.4,'d','p'
8.41,'d','p'
7.27,'g','p'
7.07,'g','p'
8.67,'g','p'
7.76,'d','p'
6.69,'d','p'
7.35,'d','p'
7.13,'g','p'
8.16,'d','p'
6.8,'d','p'
7.11,'g','p'
8.13,'g','p'
7.31,'g','p'
6.82,'d','p'
8.1,'d','p'
7.34,'g','p'
7.58,'d','p'
7.09,'g','p'
8.63,'g','p'
6.55,'d','p'
6.2,'d','p'
7,'d','p'
7.3,'d','p'
5.54,'g','p'
8.02,'g','p'
7.78,'g','p'
8,'d','p'
6.42,'g','p'
7.14,'d','p'
7.1,'d','p'
8.22,'d','p'
7.94,'g','p'
8.66,'g','p'
7.2,'d','p'
7.5,'g','p'
6.2,'d','p'
7.84,'d','p'
8.03,'g','p'
8.22,'g','p'
7.67,'d','p'
7.91,'d','p'
6.63,'d','p'
8.23,'d','p'
7.11,'g','p'
6.63,'g','p'
7.93,'d','p'
7.26,'g','p'
6,'d','p'
7.98,'d','p'
6.95,'g','p'
7.62,'g','p'
7.64,'g','p'
5.13,'g','p'
8.35,'g','p'
6.83,'d','p'
7.31,'g','p'
9.25,'d','p'
7.16,'d','p'
8.01,'g','p'
8.41,'g','p'
5.13,'g','p'
8.23,'d','p'
8.03,'g','p'
7.69,'d','p'
6.32,'d','p'
8.47,'g','p'
9.62,'d','p'
8.78,'d','p'
6.53,'g','p'
7.33,'g','p'
6.85,'d','p'
7.43,'g','p'
8.37,'g','p'
7.88,'d','p'
7.53,'g','p'
6.82,'d','p'
8.81,'g','p'
8.92,'g','p'
7.69,'g','p'
7.12,'g','p'
5.93,'g','p'
8.15,'g','p'
8.31,'d','p'
6.15,'g','p'
7.83,'d','p'
8,'g','p'
9.26,'d','p'
7.98,'g','p'
6.46,'d','p'
8.27,'g','p'
7.59,'d','p'
5.53,'d','p'
7.74,'g','p'
8.45,'d','p'
6.91,'g','p'
7.71,'d','p'
8.99,'d','p'
6.74,'g','p'
6.01,'g','p'
6.51,'d','p'
8,'d','p'
7.27,'g','p'
7.66,'d','p'
8.23,'g','p'
9.21,'d','p'
7.4,'d','p'
7.06,'d','p'
8.07,'g','p'
7.68,'d','p'
7.2,'g','p'
6.39,'d','p'
7.45,'g','p'
7.62,'d','p'
7.26,'g','p'
7.79,'g','p'
7.39,'g','p'
6.74,'g','p'
7.74,'g','p'
7.62,'g','p'
7.38,'d','p'
7.73,'d','p'
8.21,'d','p'
7.19,'g','p'
8.63,'g','p'
5.88,'g','p'
8.35,'g','p'
7.01,'g','p'
7.04,'g','p'
8.18,'d','p'
8.26,'d','p'
5.37,'g','p'
13.8,'d','e'
17.63,'d','e'
22.4,'d','e'
24.73,'d','e'
22.83,'d','e'
25.56,'d','e'
20.03,'d','e'
14.36,'d','e'
13.42,'d','e'
18.94,'d','e'
18.14,'d','e'
23.16,'d','e'
17.94,'d','e'
20.17,'d','e'
21.55,'d','e'
21.16,'d','e'
17.26,'d','e'
18.66,'d','e'
17.27,'d','e'
16.66,'d','e'
12.98,'d','e'
22.64,'d','e'
22.36,'d','e'
20.48,'d','e'
12.74,'d','e'
19.36,'d','e'
18.88,'d','e'
12.16,'d','e'
22.69,'d','e'
14.79,'d','e'
18.09,'d','e'
13.79,'d','e'
25.11,'d','e'
8.93,'d','e'
17.02,'d','e'
13.59,'d','e'
20.51,'d','e'
19.16,'d','e'
18.98,'d','e'
16.23,'d','e'
19.06,'d','e'
19.65,'d','e'
23.74,'d','e'
16.7,'d','e'
19.7,'d','e'
21.35,'d','e'
20.74,'d','e'
19.42,'d','e'
12.3,'d','e'
17.61,'d','e'
20.12,'d','e'
22.72,'d','e'
10.75,'d','e'
12.9,'d','e'
22.04,'d','e'
14.24,'d','e'
18.85,'d','e'
20.41,'d','e'
24.78,'d','e'
19.32,'d','e'
16.65,'d','e'
16.36,'d','e'
17.29,'d','e'
19.37,'d','e'
18.2,'d','e'
18.33,'d','e'
20.68,'d','e'
18.5,'d','e'
14.36,'d','e'
17.74,'d','e'
17.73,'d','e'
19.73,'d','e'
18.18,'d','e'
26.65,'d','e'
26.04,'d','e'
21.14,'d','e'
15.47,'d','e'
13.26,'d','e'
13.87,'d','e'
13.37,'d','e'
16.08,'d','e'
14.19,'d','e'
21.12,'d','e'
18.39,'d','e'
19.01,'d','e'
14.25,'d','e'
22.5,'d','e'
17.28,'d','e'
12.03,'d','e'
22.32,'d','e'
19.35,'d','e'
12.13,'d','e'
24.13,'d','e'
19.64,'d','e'
13.17,'d','e'
25.83,'d','e'
23.94,'d','e'
17.05,'d','e'
22.56,'d','e'
15.06,'d','e'
19.97,'d','e'
18.51,'d','e'
14.74,'d','e'
14.55,'d','e'
17.07,'d','e'
19.26,'d','e'
15.56,'d','e'
22.68,'d','e'
19.92,'d','e'
16.95,'d','e'
22.07,'d','e'
15.34,'d','e'
14.91,'d','e'
13.43,'d','e'
17.34,'d','e'
20.98,'d','e'
17.99,'d','e'
23.18,'d','e'
19.68,'d','e'
18.16,'d','e'
18.47,'d','e'
11.75,'d','e'
23.67,'d','e'
19.54,'d','e'
15.94,'d','e'
12.42,'d','e'
18.82,'d','e'
21.25,'d','e'
21.04,'d','e'
17.24,'d','e'
26.44,'d','e'
19.15,'d','e'
21.66,'d','e'
18.48,'d','e'
9.93,'d','e'
17.98,'d','e'
15.06,'d','e'
17.25,'d','e'
24.68,'d','e'
16.4,'d','e'
30.94,'d','e'
15.28,'d','e'
16.62,'d','e'
23.3,'d','e'
23.66,'d','e'
20.09,'d','e'
15.49,'d','e'
18.94,'d','e'
16.9,'d','e'
20.84,'d','e'
20.53,'d','e'
17.95,'d','e'
10.44,'d','e'
19.35,'d','e'
22.95,'d','e'
15.9,'d','e'
16.79,'d','e'
20.52,'d','e'
18.57,'d','e'
20.97,'d','e'
17.33,'d','e'
20.71,'d','e'
13.82,'d','e'
20.94,'d','e'
20.05,'d','e'
15.9,'d','e'
14.04,'d','e'
22.68,'d','e'
22.19,'d','e'
18.85,'d','e'
11.83,'d','e'
20.77,'d','e'
15.25,'d','e'
21.76,'d','e'
20.52,'d','e'
17.42,'d','e'
14.95,'d','e'
21.2,'d','e'
21.27,'d','e'
12.27,'d','e'
17.64,'d','e'
21.61,'d','e'
17.24,'d','e'
16.64,'d','e'
16.09,'d','e'
14.5,'d','e'
11.05,'d','e'
18.84,'d','e'
14.55,'d','e'
20.24,'d','e'
18.67,'d','e'
23.46,'d','e'
20.45,'d','e'
22.12,'d','e'
23.82,'d','e'
17.95,'d','e'
17.06,'d','e'
18.13,'d','e'
19.83,'d','e'
17.78,'d','e'
9.43,'d','e'
22.36,'d','e'
28.33,'d','e'
18.04,'d','e'
21.58,'d','e'
17.51,'d','e'
14.54,'d','e'
16.06,'d','e'
20.49,'d','e'
15.99,'d','e'
21.72,'d','e'
16.98,'d','e'
16.03,'d','e'
18.07,'d','e'
18.98,'d','e'
21.37,'d','e'
27.07,'d','e'
16,'d','e'
21.91,'d','e'
18.22,'d','e'
10.3,'d','e'
20.91,'d','e'
14.66,'d','e'
18.39,'d','e'
21.37,'d','e'
18.12,'d','e'
14.87,'d','e'
30.48,'d','e'
18.02,'d','e'
16.43,'d','e'
16.96,'d','e'
18.08,'d','e'
21.71,'d','e'
21.29,'d','e'
17.31,'d','e'
18.36,'d','e'
26.43,'d','e'
20.28,'d','e'
13.22,'d','e'
10.88,'d','e'
18.67,'d','e'
11.86,'d','e'
16.98,'d','e'
21.25,'d','e'
18.59,'d','e'
10.41,'d','e'
17.96,'d','e'
12.24,'d','e'
24.54,'d','e'
19.73,'d','e'
17.43,'d','e'
17.14,'d','e'
25.5,'d','e'
13.38,'d','e'
23.42,'d','e'
14.38,'d','e'
20.94,'d','e'
23.51,'d','e'
21.97,'d','e'
17.81,'d','e'
14.23,'d','e'
22.54,'d','e'
16.86,'d','e'
18.72,'d','e'
10.63,'d','e'
16.01,'d','e'
18.32,'d','e'
22.23,'d','e'
12.91,'d','e'
18.53,'d','e'
21.33,'d','e'
22.32,'d','e'
24.68,'d','e'
23.44,'d','e'
20.56,'d','e'
20.63,'d','e'
18.38,'d','e'
18.95,'d','e'
24.06,'d','e'
19.29,'d','e'
16.43,'d','e'
14.87,'d','e'
22.4,'d','e'
16.72,'d','e'
23.91,'d','e'
19.82,'d','e'
15.85,'d','e'
20.86,'d','e'
10.63,'d','e'
18.03,'d','e'
22.37,'d','e'
16.91,'d','e'
19.91,'d','e'
21.53,'d','e'
17.13,'d','e'
17.02,'d','e'
19.68,'d','e'
12.97,'d','e'
25.43,'d','e'
27.83,'d','e'
17.49,'d','e'
25.12,'d','e'
17.42,'d','e'
16.61,'d','e'
11.69,'d','e'
21.88,'d','e'
20.04,'d','e'
20.93,'d','e'
14.68,'d','e'
20.19,'d','e'
18.65,'d','e'
17.62,'d','e'
20.56,'d','e'
20.79,'d','e'
26.91,'d','e'
22.2,'d','e'
19.03,'d','e'
20.02,'d','e'
20.78,'d','e'
21.94,'d','e'
23.28,'d','e'
27.6,'d','e'
16.53,'d','e'
19.23,'d','e'
17.97,'d','e'
24.2,'d','e'
15.98,'d','e'
19.53,'d','e'
23.01,'d','e'
15.24,'d','e'
19.22,'d','e'
15.95,'d','e'
19.38,'d','e'
19.23,'d','e'
23.67,'d','e'
17.75,'d','e'
12.21,'d','e'
16.59,'d','e'
20.86,'d','e'
15.74,'d','e'
18.52,'d','e'
29.82,'d','e'
14.65,'d','e'
26.16,'d','e'
16.35,'d','e'
16.3,'d','e'
13.3,'d','e'
27.07,'d','e'
20.35,'d','e'
18.87,'d','e'
18.44,'d','e'
14.58,'d','e'
13.24,'d','e'
13.21,'d','e'
9.4,'d','e'
9.88,'d','e'
11.67,'d','e'
10.67,'d','e'
11.26,'d','e'
9.84,'d','e'
11.58,'d','e'
11.77,'d','e'
10.94,'d','e'
10.3,'d','e'
12.58,'d','e'
13.58,'d','e'
10.52,'d','e'
12.1,'d','e'
10.84,'d','e'
11.23,'d','e'
12.72,'d','e'
9.4,'d','e'
10.38,'d','e'
11.84,'d','e'
9.59,'d','e'
10.45,'d','e'
11.21,'d','e'
13.57,'d','e'
11.47,'d','e'
10.66,'d','e'
12.39,'d','e'
12.5,'d','e'
10.42,'d','e'
13.27,'d','e'
12.33,'d','e'
10.07,'d','e'
11.31,'d','e'
11.61,'d','e'
10.9,'d','e'
8.27,'d','e'
11.38,'d','e'
12.76,'d','e'
7.58,'d','e'
13.35,'d','e'
14.77,'d','e'
12.01,'d','e'
11.64,'d','e'
12.57,'d','e'
12.31,'d','e'
10.43,'d','e'
11.66,'d','e'
12.29,'d','e'
13.12,'d','e'
11.97,'d','e'
9.33,'d','e'
10.65,'d','e'
11.12,'d','e'
12.45,'d','e'
9.55,'d','e'
11.31,'d','e'
10.52,'d','e'
12.74,'d','e'
12.35,'d','e'
9.2,'d','e'
11.76,'d','e'
8.74,'d','e'
10.3,'d','e'
9.17,'d','e'
10.69,'d','e'
11.94,'d','e'
10.66,'d','e'
9.53,'d','e'
11.16,'d','e'
11.79,'d','e'
9.6,'d','e'
11.96,'d','e'
9.89,'d','e'
10.49,'d','e'
12.48,'d','e'
9.95,'d','e'
13.04,'d','e'
10.19,'d','e'
11.95,'d','e'
10.51,'d','e'
8.59,'d','e'
12.17,'d','e'
12.45,'d','e'
10.13,'d','e'
11.09,'d','e'
10.97,'d','e'
9.5,'d','e'
11.09,'d','e'
10.42,'d','e'
9.98,'d','e'
11.23,'d','e'
8.64,'d','e'
13.46,'d','e'
11.15,'d','e'
9.65,'d','e'
10.48,'d','e'
12.66,'d','e'
9.74,'d','e'
9.57,'d','e'
9.71,'d','e'
10.28,'d','e'
9.56,'d','e'
8.74,'d','e'
11.62,'d','e'
12.5,'d','e'
11.56,'d','e'
13.13,'d','e'
9.63,'d','e'
10.34,'d','e'
13.03,'d','e'
11.7,'d','e'
11.04,'d','e'
11.08,'d','e'
14.16,'d','e'
10.98,'d','e'
11.81,'d','e'
11.48,'d','e'
14.02,'d','e'
12.21,'d','e'
9.87,'d','e'
13.38,'d','e'
11.54,'d','e'
9.68,'d','e'
11.95,'d','e'
9.23,'d','e'
10.33,'d','e'
10.69,'d','e'
9.44,'d','e'
11.42,'d','e'
9.66,'d','e'
11.02,'d','e'
11.13,'d','e'
11.55,'d','e'
9.77,'d','e'
13.26,'d','e'
11.33,'d','e'
10.86,'d','e'
10.37,'d','e'
10.76,'d','e'
11.92,'d','e'
12.09,'d','e'
12.91,'d','e'
12.63,'d','e'
10.79,'d','e'
10.93,'d','e'
10.31,'d','e'
10.23,'d','e'
9.43,'d','e'
10.21,'d','e'
10.84,'d','e'
10.83,'d','e'
13.64,'d','e'
12.66,'d','e'
10.62,'d','e'
10.79,'d','e'
12.47,'d','e'
9.97,'d','e'
13.99,'d','e'
12.86,'d','e'
12.06,'d','e'
10.47,'d','e'
9.34,'d','e'
10.82,'d','e'
12,'d','e'
12.44,'d','e'
10.05,'d','e'
10.59,'d','e'
9.75,'d','e'
11.9,'d','e'
12.39,'d','e'
10,'d','e'
10.42,'d','e'
11.45,'d','e'
12.27,'d','e'
9.64,'d','e'
8.47,'d','e'
8.93,'d','e'
8.43,'d','e'
11.93,'d','e'
10.96,'d','e'
13.06,'d','e'
11.36,'d','e'
11.2,'d','e'
12.62,'d','e'
11.9,'d','e'
10.33,'d','e'
9.34,'d','e'
10.3,'d','e'
13.16,'d','e'
11.26,'d','e'
12.78,'d','e'
8.81,'d','e'
10.01,'d','e'
10.32,'d','e'
11.19,'d','e'
10.36,'d','e'
11.07,'d','e'
12.79,'d','e'
11.78,'d','e'
10.75,'d','e'
14.05,'d','e'
11.9,'d','e'
9.82,'d','e'
11.43,'d','e'
13.05,'d','e'
10.64,'d','e'
10.02,'d','e'
10.91,'d','e'
10.16,'d','e'
11.23,'d','e'
14.32,'d','e'
12.15,'d','e'
11.41,'d','e'
10.36,'d','e'
11.71,'d','e'
10.34,'d','e'
11.1,'d','e'
10.7,'d','e'
11.97,'d','e'
12.11,'d','e'
11.11,'d','e'
11.04,'d','e'
12.26,'d','e'
10.28,'d','e'
8.77,'d','e'
10.51,'d','e'
10.62,'d','e'
11.34,'d','e'
10.06,'d','e'
11.06,'d','e'
9.99,'d','e'
8.27,'d','e'
12.28,'d','e'
12.03,'d','e'
10.58,'d','e'
10.35,'d','e'
13.59,'d','e'
9.8,'d','e'
11.75,'d','e'
11.09,'d','e'
13.33,'d','e'
9.29,'d','e'
10.87,'d','e'
10.09,'d','e'
12.27,'d','e'
9.28,'d','e'
9.94,'d','e'
11.62,'d','e'
10.32,'d','e'
8.73,'d','e'
10.23,'d','e'
11.44,'d','e'
10.41,'d','e'
13.74,'d','e'
11.2,'d','e'
9.54,'d','e'
9.59,'d','e'
9.35,'d','e'
10.31,'d','e'
14,'d','e'
10.73,'d','e'
12.45,'d','e'
9.5,'d','e'
8.95,'d','e'
10.08,'d','e'
12.13,'d','e'
9.5,'d','e'
11.39,'d','e'
10.34,'d','e'
10.42,'d','e'
8.45,'d','e'
10.66,'d','e'
11.17,'d','e'
8.49,'d','e'
13.76,'d','e'
9.52,'d','e'
11.81,'d','e'
13.06,'d','e'
12.13,'d','e'
10.38,'d','e'
11.02,'d','e'
13.14,'d','e'
11.98,'d','e'
9.95,'d','e'
9.2,'d','e'
10.45,'d','e'
10.06,'d','e'
9.66,'d','e'
10.75,'d','e'
9.11,'d','e'
11.7,'d','e'
10.91,'d','e'
12.58,'d','e'
11.35,'d','e'
12.51,'d','e'
9.73,'d','e'
11.9,'d','e'
9.74,'d','e'
9.52,'d','e'
12.24,'d','e'
10.18,'d','e'
11.08,'d','e'
13.3,'d','e'
9.88,'d','e'
10.86,'d','e'
9.16,'d','e'
10.43,'d','e'
13.21,'d','e'
12.38,'d','e'
11.05,'d','e'
9.97,'d','e'
11.97,'d','e'
10.39,'d','e'
10.27,'d','e'
11.37,'d','e'
13.35,'d','e'
11.07,'d','e'
10.03,'d','e'
10.48,'d','e'
11.73,'d','e'
10.14,'d','e'
12.74,'d','e'
10.46,'d','e'
10.83,'d','e'
11.5,'d','e'
10.06,'d','e'
10.74,'d','e'
8.95,'d','e'
12.32,'d','e'
13.01,'d','e'
12.75,'d','e'
10.54,'d','e'
11.6,'d','e'
13.35,'d','e'
10.69,'d','e'
7.36,'d','e'
11.87,'d','e'
11.21,'d','e'
11.02,'d','e'
10.88,'d','e'
12.09,'d','e'
10.63,'d','e'
10.37,'d','e'
11.7,'d','e'
11.09,'d','e'
11.02,'d','e'
11.23,'d','e'
7.54,'d','e'
9.62,'d','e'
10.57,'d','e'
11.3,'d','e'
11.74,'d','e'
7.76,'d','e'
7.44,'d','e'
7.16,'d','e'
8.73,'d','e'
8.35,'d','e'
8.65,'d','e'
8.19,'d','e'
7.12,'d','e'
7.22,'d','e'
7.03,'d','e'
8.61,'d','e'
8.39,'d','e'
6.63,'d','e'
9.42,'d','e'
8,'d','e'
6.16,'d','e'
6.83,'d','e'
7.68,'d','e'
6.54,'d','e'
7.24,'d','e'
6.67,'d','e'
6.11,'d','e'
7.43,'d','e'
6.99,'d','e'
7.39,'d','e'
7.6,'d','e'
8.44,'d','e'
6.15,'d','e'
7.18,'d','e'
8.27,'d','e'
7.56,'d','e'
6.87,'d','e'
9.02,'d','e'
9.34,'d','e'
7.28,'d','e'
9.14,'d','e'
5.82,'d','e'
7.06,'d','e'
6.41,'d','e'
7.02,'d','e'
6.69,'d','e'
8.74,'d','e'
7.14,'d','e'
7.45,'d','e'
7.9,'d','e'
9.61,'d','e'
8,'d','e'
8.51,'d','e'
7.94,'d','e'
8.1,'d','e'
8.75,'d','e'
7.83,'d','e'
7.17,'d','e'
6.18,'d','e'
7.56,'d','e'
8.19,'d','e'
6.71,'d','e'
9.45,'d','e'
7.46,'d','e'
6.37,'d','e'
6.92,'d','e'
7.99,'d','e'
8.76,'d','e'
6.18,'d','e'
7.58,'d','e'
6.89,'d','e'
8.14,'d','e'
7.12,'d','e'
9.21,'d','e'
7.87,'d','e'
6.92,'d','e'
8.26,'d','e'
6.76,'d','e'
7.41,'d','e'
6.34,'d','e'
7.96,'d','e'
7.63,'d','e'
7.05,'d','e'
7.64,'d','e'
6.96,'d','e'
7.72,'d','e'
7.79,'d','e'
7.89,'d','e'
8.33,'d','e'
7.78,'d','e'
6.44,'d','e'
7.56,'d','e'
6.81,'d','e'
7.36,'d','e'
7.81,'d','e'
7.63,'d','e'
7.24,'d','e'
6.78,'d','e'
8.52,'d','e'
6.24,'d','e'
7.62,'d','e'
7.64,'d','e'
7.14,'d','e'
6.93,'d','e'
8.25,'d','e'
7.52,'d','e'
6.41,'d','e'
7.18,'d','e'
7.95,'d','e'
6.96,'d','e'
8.29,'d','e'
7.63,'d','e'
7.8,'d','e'
7.54,'d','e'
8.79,'d','e'
7,'d','e'
7.51,'d','e'
8.21,'d','e'
6.82,'d','e'
6.17,'d','e'
6.63,'d','e'
7.3,'d','e'
7.49,'d','e'
7.49,'d','e'
7.28,'d','e'
7.23,'d','e'
8.49,'d','e'
8.29,'d','e'
6.3,'d','e'
9.67,'d','e'
7.84,'d','e'
7.37,'d','e'
7.21,'d','e'
7.35,'d','e'
7,'d','e'
6.61,'d','e'
8.53,'d','e'
9.62,'d','e'
9.37,'d','e'
7.72,'d','e'
6.01,'d','e'
8.47,'d','e'
8.25,'d','e'
7.72,'d','e'
6.83,'d','e'
8.59,'d','e'
8.54,'d','e'
7.58,'d','e'
7.5,'d','e'
9.2,'d','e'
7.63,'d','e'
7.63,'d','e'
8.61,'d','e'
9.21,'d','e'
6.89,'d','e'
8.87,'d','e'
7.03,'d','e'
7.66,'d','e'
8.25,'d','e'
7.83,'d','e'
7.18,'d','e'
9.5,'d','e'
7.18,'d','e'
7,'d','e'
7.84,'d','e'
6.94,'d','e'
7.99,'d','e'
7.92,'d','e'
7.94,'d','e'
8.48,'d','e'
5.31,'d','e'
8.6,'d','e'
7.5,'d','e'
6.8,'d','e'
6.85,'d','e'
7.96,'d','e'
8.74,'d','e'
6.72,'d','e'
7.91,'d','e'
7.49,'d','e'
7.65,'d','e'
7.26,'d','e'
7.14,'d','e'
7.05,'d','e'
7.75,'d','e'
8.82,'d','e'
8.2,'d','e'
7.97,'d','e'
7.53,'d','e'
8.3,'d','e'
6.65,'d','e'
7.07,'d','e'
7.47,'d','e'
7.07,'d','e'
6.58,'d','e'
8.24,'d','e'
6.88,'d','e'
8.17,'d','e'
6.39,'d','e'
7.92,'d','e'
6.5,'d','e'
7.34,'d','e'
8.42,'d','e'
7.92,'d','e'
7.86,'d','e'
7.34,'d','e'
7.61,'d','e'
8.6,'d','e'
7.54,'d','e'
8.24,'d','e'
7.29,'d','e'
6.86,'d','e'
6.87,'d','e'
7.78,'d','e'
10.49,'d','e'
7.28,'d','e'
8.47,'d','e'
7.03,'d','e'
6.96,'d','e'
8.49,'d','e'
6.82,'d','e'
7.96,'d','e'
6.9,'d','e'
8.21,'d','e'
6.87,'d','e'
6.33,'d','e'
7.82,'d','e'
7.5,'d','e'
7.81,'d','e'
7.3,'d','e'
7.77,'d','e'
7.88,'d','e'
8.21,'d','e'
8.71,'d','e'
7.47,'d','e'
8.45,'d','e'
7.25,'d','e'
6.68,'d','e'
8.63,'d','e'
6.21,'d','e'
8.69,'d','e'
7.53,'d','e'
8.82,'d','e'
7.69,'d','e'
7.77,'d','e'
6.63,'d','e'
8.32,'d','e'
7.83,'d','e'
6.64,'d','e'
7.91,'d','e'
6.77,'d','e'
8.3,'d','e'
6.71,'d','e'
7.21,'d','e'
7.27,'d','e'
7.77,'d','e'
7.25,'d','e'
6.87,'d','e'
7.36,'d','e'
7.76,'d','e'
7.03,'d','e'
5.69,'d','e'
7.1,'d','e'
7.36,'d','e'
5.68,'d','e'
6.44,'d','e'
7.78,'d','e'
8.47,'d','e'
7.7,'d','e'
7.02,'d','e'
6.68,'d','e'
7.55,'d','e'
6.4,'d','e'
5.5,'d','e'
6.94,'d','e'
7.13,'d','e'
7.07,'d','e'
6.79,'d','e'
6.18,'d','e'
7.6,'d','e'
6.62,'d','e'
6.4,'d','e'
8.24,'d','e'
8.04,'d','e'
6.64,'d','e'
7.82,'d','e'
8.15,'d','e'
7.64,'d','e'
7.25,'d','e'
7.62,'d','e'
7.65,'d','e'
7.36,'d','e'
7.18,'d','e'
7.54,'d','e'
7.85,'d','e'
6.95,'d','e'
7.39,'d','e'
7.74,'d','e'
6.91,'d','e'
9.41,'d','e'
5.92,'d','e'
8.4,'d','e'
7.03,'d','e'
7.34,'d','e'
6.91,'d','e'
6.29,'d','e'
7.97,'d','e'
9.19,'d','e'
8.46,'d','e'
8.67,'d','e'
7.22,'d','e'
7.95,'d','e'
6.8,'d','e'
7.17,'d','e'
6.57,'d','e'
7.67,'d','e'
7.67,'d','e'
7.09,'d','e'
7.9,'d','e'
7.43,'d','e'
7.75,'d','e'
8.52,'d','e'
6.46,'d','e'
7.77,'d','e'
8.92,'d','e'
8.61,'d','e'
6.83,'d','e'
7.74,'d','e'
6.49,'d','e'
8.91,'d','e'
8.1,'d','e'
6.63,'d','e'
7.55,'d','e'
7.58,'d','e'
8.81,'d','e'
8.23,'d','e'
7.42,'d','e'
7.24,'d','e'
7.61,'d','e'
8.77,'d','e'
8.57,'d','e'
7.42,'d','e'
7.87,'d','e'
7.86,'d','e'
7.2,'d','e'
7.56,'d','e'
7.4,'d','e'
7.84,'d','e'
6.91,'d','e'
7.56,'d','e'
6.38,'d','e'
9.08,'d','e'
9.03,'d','e'
8.13,'d','e'
8.26,'d','e'
8.03,'d','e'
5.48,'d','e'
8.74,'d','e'
8.05,'d','e'
5.23,'d','e'
9,'d','e'
6.19,'d','e'
7.54,'d','e'
7.59,'d','e'
7.22,'d','e'
5.54,'d','e'
6.65,'d','e'
7.77,'d','e'
8.25,'d','e'
6.38,'d','e'
8.65,'d','e'
7.59,'d','e'
7.05,'d','e'
7.07,'d','e'
7.15,'d','e'
4.88,'d','e'
8.45,'d','e'
7.61,'d','e'
6.29,'d','e'
6.06,'d','e'
8.99,'d','e'
8.98,'d','e'
7.3,'d','e'
8.36,'d','e'
7.15,'d','e'
5.72,'d','e'
6.56,'d','e'
5.6,'d','e'
8.6,'d','e'
7.09,'d','e'
6.09,'d','e'
5.85,'d','e'
6.37,'d','e'
4.84,'d','e'
5.05,'d','e'
7.63,'d','e'
5.57,'d','e'
8.69,'d','e'
6.75,'d','e'
4.48,'d','e'
4.62,'d','e'
6.86,'d','e'
6.04,'d','e'
7.6,'d','e'
6.97,'d','e'
4.98,'d','e'
3.99,'d','e'
7.4,'d','e'
3.5,'d','e'
5.69,'d','e'
6.37,'d','e'
6.66,'d','e'
5.19,'d','e'
7.69,'d','e'
7.36,'d','e'
6.55,'d','e'
7,'d','e'
5.61,'d','e'
6.46,'d','e'
5.78,'d','e'
5.81,'d','e'
7.37,'d','e'
7.45,'d','e'
6.33,'d','e'
6.31,'d','e'
3.53,'d','e'
6.22,'d','e'
4.89,'d','e'
6.38,'d','e'
5.96,'d','e'
7.03,'d','e'
6.31,'d','e'
6.71,'d','e'
7.49,'d','e'
6.27,'d','e'
8.39,'d','e'
4.27,'d','e'
6.35,'d','e'
8.02,'d','e'
6.38,'d','e'
5.96,'d','e'
5.41,'d','e'
8.18,'d','e'
7.19,'d','e'
8.42,'d','e'
6.47,'d','e'
7.13,'d','e'
6.1,'d','e'
9.18,'d','e'
6.44,'d','e'
5.89,'d','e'
7.86,'d','e'
6.65,'d','e'
5.05,'d','e'
7.55,'d','e'
6.46,'d','e'
6.96,'d','e'
5.34,'d','e'
7.44,'d','e'
6.94,'d','e'
4.83,'d','e'
6.54,'d','e'
8.48,'d','e'
7.21,'d','e'
7.28,'d','e'
4.03,'d','e'
5.52,'d','e'
6.72,'d','e'
8.29,'d','e'
8.35,'d','e'
4.64,'d','e'
6.46,'d','e'
6.83,'d','e'
7.26,'d','e'
7.1,'d','e'
6.2,'d','e'
6.41,'d','e'
7.04,'d','e'
6.63,'d','e'
6.41,'d','e'
6.72,'d','e'
6.38,'d','e'
4.76,'d','e'
6.21,'d','e'
5.85,'d','e'
8.02,'d','e'
6.54,'d','e'
9.39,'d','e'
6.6,'d','e'
4.97,'d','e'
6.54,'d','e'
6.8,'d','e'
5.35,'d','e'
7.76,'d','e'
7.37,'d','e'
6.9,'d','e'
5.88,'d','e'
5.06,'d','e'
4.67,'d','e'
5.69,'d','e'
6.72,'d','e'
5.21,'d','e'
4.35,'d','e'
5.77,'d','e'
6.94,'d','e'
6.07,'d','e'
3.71,'d','e'
8.02,'d','e'
5.64,'d','e'
6.43,'d','e'
7.58,'d','e'
8.49,'d','e'
5.52,'d','e'
4.43,'d','e'
5.83,'d','e'
6.58,'d','e'
6.05,'d','e'
8.07,'d','e'
5.99,'d','e'
5,'d','e'
11.03,'d','e'
9.97,'d','e'
4.85,'d','e'
5.58,'d','e'
5.91,'d','e'
5.79,'d','e'
9.43,'d','e'
7.93,'d','e'
7.74,'d','e'
7.63,'d','e'
6.06,'d','e'
6.16,'d','e'
8.74,'d','e'
6.19,'d','e'
5.55,'d','e'
6.05,'d','e'
5.48,'d','e'
4.9,'d','e'
8.52,'d','e'
7.43,'d','e'
8.28,'d','e'
5.82,'d','e'
6.56,'d','e'
6.11,'d','e'
7.2,'d','e'
6.72,'d','e'
6.4,'d','e'
5.44,'d','e'
5.7,'d','e'
6.98,'d','e'
8.5,'d','e'
4.59,'d','e'
5.09,'d','e'
7.32,'d','e'
7.39,'d','e'
7.51,'d','e'
5.3,'d','e'
7.84,'d','e'
5.15,'d','e'
4.76,'d','e'
7.15,'d','e'
6.39,'d','e'
6.92,'d','e'
9.57,'d','e'
6.13,'d','e'
5.27,'d','e'
7.1,'d','e'
7.09,'d','e'
5.79,'d','e'
5.41,'d','e'
7.58,'d','e'
6.8,'d','e'
5.86,'d','e'
4.26,'d','e'
5.46,'d','e'
5.45,'d','e'
4.98,'d','e'
9.01,'d','e'
6.79,'d','e'
4.63,'d','e'
4.48,'d','e'
7.06,'d','e'
5.54,'d','e'
6.21,'d','e'
8.74,'d','e'
6.7,'d','e'
8.67,'d','e'
6.52,'d','e'
6.13,'d','e'
7.71,'d','e'
8.41,'d','e'
7.75,'d','e'
5.64,'d','e'
6.92,'d','e'
6.99,'d','e'
7.31,'d','e'
4.57,'d','e'
6.53,'d','e'
4.56,'d','e'
7.07,'d','e'
10.16,'d','e'
6.5,'d','e'
5.52,'d','e'
5.4,'d','e'
5.53,'d','e'
7.43,'d','e'
6.2,'d','e'
6.41,'d','e'
4.86,'d','e'
6.2,'d','e'
7.38,'d','e'
5.24,'d','e'
6.81,'d','e'
6.4,'d','e'
7.39,'d','e'
7.27,'d','e'
6.19,'d','e'
5.74,'d','e'
7.61,'d','e'
6.99,'d','e'
7.22,'d','e'
7.46,'d','e'
7.78,'d','e'
7.05,'d','e'
6.26,'d','e'
4.74,'d','e'
6.7,'d','e'
4.12,'d','e'
8.3,'d','e'
7.07,'d','e'
7.08,'d','e'
5.79,'d','e'
8.68,'d','e'
6.32,'d','e'
6.52,'d','e'
4.34,'d','e'
5.02,'d','e'
7.1,'d','e'
8.56,'d','e'
6.8,'d','e'
6.49,'d','e'
7.9,'d','e'
5.06,'d','e'
6.42,'d','e'
7.42,'d','e'
6.88,'d','e'
6.09,'d','e'
5.63,'d','e'
5.59,'d','e'
6.02,'d','e'
6.83,'d','e'
7.8,'d','e'
6.96,'d','e'
7.79,'d','e'
7.29,'d','e'
6.37,'d','e'
6.27,'d','e'
7.92,'d','e'
6.19,'d','e'
7.46,'d','e'
5.77,'d','e'
4.59,'d','e'
8.73,'d','e'
6.48,'d','e'
6.11,'d','e'
4,'d','e'
7.57,'d','e'
8.41,'d','e'
6.65,'d','e'
6.33,'d','e'
7.63,'d','e'
6.22,'d','e'
7.45,'d','e'
6.94,'d','e'
8.06,'d','e'
7.21,'d','e'
6.5,'d','e'
8.14,'d','e'
5.89,'d','e'
6.76,'d','e'
6.24,'d','e'
6.34,'d','e'
7.3,'d','e'
8.47,'d','e'
6.27,'d','e'
5.07,'d','e'
5.9,'d','e'
8.17,'d','e'
6.91,'d','e'
7.43,'d','e'
6.78,'d','e'
5.65,'d','e'
5.65,'d','e'
5.68,'d','e'
6.24,'d','e'
8.75,'d','e'
6.17,'d','e'
7.38,'d','e'
7.42,'d','e'
9.39,'d','e'
6.6,'d','e'
6.85,'d','e'
5.36,'d','e'
7.72,'d','e'
7.13,'d','e'
5.4,'d','e'
6.78,'d','e'
5.44,'d','e'
8.83,'d','e'
3.55,'d','e'
6.37,'d','e'
15.42,'d','p'
14.17,'d','p'
15.9,'d','p'
15.09,'d','p'
11.95,'d','p'
12.79,'d','p'
13.52,'d','p'
17.06,'d','p'
11.15,'d','p'
9.6,'d','p'
16.09,'d','p'
15.23,'d','p'
12.75,'d','p'
14.25,'d','p'
14.48,'d','p'
13.68,'d','p'
14.85,'d','p'
15.13,'d','p'
13.48,'d','p'
16.18,'d','p'
15.75,'d','p'
10.91,'d','p'
16.56,'d','p'
11.91,'d','p'
11.73,'d','p'
16.63,'d','p'
17.43,'d','p'
15.14,'d','p'
14.41,'d','p'
14.99,'d','p'
15.64,'d','p'
16.86,'d','p'
16.83,'d','p'
11.03,'d','p'
10.36,'d','p'
16.39,'d','p'
14.96,'d','p'
13.07,'d','p'
15.28,'d','p'
17.07,'d','p'
12.15,'d','p'
15.74,'d','p'
15.23,'d','p'
11.54,'d','p'
12.75,'d','p'
11.82,'d','p'
12.29,'d','p'
13.66,'d','p'
14.92,'d','p'
12.86,'d','p'
11.84,'d','p'
14.09,'d','p'
13.59,'d','p'
11.6,'d','p'
19.63,'d','p'
13.43,'d','p'
16.36,'d','p'
15.22,'d','p'
11.03,'d','p'
13.88,'d','p'
15.34,'d','p'
16.06,'d','p'
13.32,'d','p'
14.29,'d','p'
10.52,'d','p'
14.05,'d','p'
13.97,'d','p'
12.75,'d','p'
11.85,'d','p'
12.22,'d','p'
15.44,'d','p'
15.45,'d','p'
15.78,'d','p'
16.51,'d','p'
20.12,'d','p'
11.66,'d','p'
18.48,'d','p'
11.85,'d','p'
14.56,'d','p'
13.65,'d','p'
12.95,'d','p'
12.34,'d','p'
16.04,'d','p'
14.33,'d','p'
14.81,'d','p'
14.61,'d','p'
17.1,'d','p'
17.38,'d','p'
15.33,'d','p'
13.15,'d','p'
12.22,'d','p'
14.91,'d','p'
15.85,'d','p'
16.83,'d','p'
12.34,'d','p'
10.69,'d','p'
13.69,'d','p'
13.46,'d','p'
12.41,'d','p'
13.11,'d','p'
17.6,'d','p'
11.85,'d','p'
16.86,'d','p'
15.56,'d','p'
15.05,'d','p'
14.19,'d','p'
13.73,'d','p'
14.65,'d','p'
15.16,'d','p'
15.51,'d','p'
14.7,'d','p'
15.86,'d','p'
15.93,'d','p'
15.82,'d','p'
16.28,'d','p'
14.14,'d','p'
14.94,'d','p'
13.57,'d','p'
14.9,'d','p'
13.51,'d','p'
14.84,'d','p'
11.06,'d','p'
13.46,'d','p'
15.33,'d','p'
16.72,'d','p'
8.91,'d','p'
12.99,'d','p'
14.74,'d','p'
11.76,'d','p'
14.51,'d','p'
14.8,'d','p'
12.65,'d','p'
13.3,'d','p'
15.42,'d','p'
13.55,'d','p'
14.41,'d','p'
14.36,'d','p'
10.14,'d','p'
14.84,'d','p'
12.71,'d','p'
12.98,'d','p'
13.4,'d','p'
11.43,'d','p'
13.4,'d','p'
15.11,'d','p'
12.87,'d','p'
12.79,'d','p'
13.67,'d','p'
15.54,'d','p'
19.62,'d','p'
10.88,'d','p'
16.48,'d','p'
11.59,'d','p'
17.07,'d','p'
11.58,'d','p'
16.54,'d','p'
13.06,'d','p'
14.55,'d','p'
13.48,'d','p'
11.76,'d','p'
14.74,'d','p'
10.83,'d','p'
15.06,'d','p'
14.46,'d','p'
14.75,'d','p'
13.23,'d','p'
16.09,'d','p'
14.82,'d','p'
15.69,'d','p'
16.27,'d','p'
13.05,'d','p'
13.9,'d','p'
13.38,'d','p'
10.4,'d','p'
17.4,'d','p'
14.2,'d','p'
17.89,'d','p'
13.7,'d','p'
13.4,'d','p'
10.17,'d','p'
12.68,'d','p'
13.03,'d','p'
16.16,'d','p'
13.74,'d','p'
13.26,'d','p'
13.91,'d','p'
18.84,'d','p'
15.79,'d','p'
15.67,'d','p'
18.53,'d','p'
16.03,'d','p'
15.1,'d','p'
14.52,'d','p'
14.57,'d','p'
10.11,'d','p'
14.84,'d','p'
14.38,'d','p'
16.9,'d','p'
11.83,'d','p'
10.58,'d','p'
14.68,'d','p'
12.35,'d','p'
12.3,'d','p'
14.46,'d','p'
11.26,'d','p'
11.44,'d','p'
12.92,'d','p'
11.88,'d','p'
11.1,'d','p'
16.54,'d','p'
16.72,'d','p'
12.19,'d','p'
12.06,'d','p'
13.37,'d','p'
14.19,'d','p'
14.7,'d','p'
15.15,'d','p'
13.23,'d','p'
16.83,'d','p'
13.97,'d','p'
13.35,'d','p'
16.77,'d','p'
15.04,'d','p'
16.81,'d','p'
13.35,'d','p'
14.63,'d','p'
12.85,'d','p'
13.53,'d','p'
13.16,'d','p'
16.18,'d','p'
12.22,'d','p'
14.94,'d','p'
14.85,'d','p'
13.36,'d','p'
13.74,'d','p'
15.14,'d','p'
12.14,'d','p'
11.86,'d','p'
11.83,'d','p'
11.82,'d','p'
9.76,'d','p'
11.87,'d','p'
12.56,'d','p'
12.94,'d','p'
13.26,'d','p'
12.11,'d','p'
13.39,'d','p'
14.12,'d','p'
13.7,'d','p'
12.46,'d','p'
15.18,'d','p'
11.46,'d','p'
13.32,'d','p'
14.12,'d','p'
14,'d','p'
12.06,'d','p'
13.52,'d','p'
13.42,'d','p'
14.52,'d','p'
11.97,'d','p'
14.38,'d','p'
12.2,'d','p'
10.87,'d','p'
12,'d','p'
10.98,'d','p'
14.42,'d','p'
17.1,'d','p'
12.42,'d','p'
13.16,'d','p'
13.77,'d','p'
17.42,'d','p'
14.35,'d','p'
17.43,'d','p'
14.8,'d','p'
14.11,'d','p'
12.07,'d','p'
12.72,'d','p'
13.24,'d','p'
8.94,'d','p'
13.25,'d','p'
16.53,'d','p'
16.15,'d','p'
11.34,'d','p'
12.88,'d','p'
13.81,'d','p'
16.9,'d','p'
16.61,'d','p'
15.32,'d','p'
13.62,'d','p'
13.56,'d','p'
14.28,'d','p'
14.24,'d','p'
13.18,'d','p'
13.07,'d','p'
10.82,'d','p'
16.5,'d','p'
12.72,'d','p'
15.95,'d','p'
15.15,'d','p'
14.64,'d','p'
13.92,'d','p'
13.78,'d','p'
12,'d','p'
12.08,'d','p'
12.34,'d','p'
10.11,'d','p'
13.26,'d','p'
12.79,'d','p'
14.3,'d','p'
12.3,'d','p'
12.1,'d','p'
16.13,'d','p'
15.05,'d','p'
15.55,'d','p'
14.97,'d','p'
14.48,'d','p'
15.1,'d','p'
12.26,'d','p'
14.85,'d','p'
12.87,'d','p'
11.18,'d','p'
14.52,'d','p'
15.2,'d','p'
16.15,'d','p'
12.1,'d','p'
13.72,'d','p'
15.16,'d','p'
9.98,'d','p'
10.26,'d','p'
14.95,'d','p'
10.77,'d','p'
16.48,'d','p'
16.55,'d','p'
13.74,'d','p'
14.71,'d','p'
16.05,'d','p'
13.9,'d','p'
14.66,'d','p'
15.29,'d','p'
15.24,'d','p'
15.17,'d','p'
11.58,'d','p'
12.4,'d','p'
13.48,'d','p'
13.37,'d','p'
12.63,'d','p'
16.1,'d','p'
17.27,'d','p'
12.7,'d','p'
14.33,'d','p'
13.27,'d','p'
11.34,'d','p'
14.71,'d','p'
9.09,'d','p'
11.35,'d','p'
9.77,'d','p'
11.18,'d','p'
12,'d','p'
9.18,'d','p'
11.99,'d','p'
12.19,'d','p'
9.8,'d','p'
11.61,'d','p'
10.86,'d','p'
11.12,'d','p'
11.56,'d','p'
9.42,'d','p'
10.54,'d','p'
10.27,'d','p'
11.61,'d','p'
10.11,'d','p'
11.07,'d','p'
12.13,'d','p'
11.02,'d','p'
9.13,'d','p'
10.52,'d','p'
12.16,'d','p'
12.11,'d','p'
10.92,'d','p'
10.17,'d','p'
11.85,'d','p'
10.64,'d','p'
10.24,'d','p'
12.27,'d','p'
9.01,'d','p'
11.1,'d','p'
11.28,'d','p'
11.68,'d','p'
9.66,'d','p'
11.92,'d','p'
12.19,'d','p'
11.93,'d','p'
11.88,'d','p'
10.55,'d','p'
10.03,'d','p'
12.43,'d','p'
9.93,'d','p'
12.04,'d','p'
12,'d','p'
10.94,'d','p'
11.39,'d','p'
10,'d','p'
11.13,'d','p'
10.94,'d','p'
10.96,'d','p'
12.03,'d','p'
10.05,'d','p'
11.68,'d','p'
11.94,'d','p'
11.45,'d','p'
10.96,'d','p'
10.17,'d','p'
11.89,'d','p'
8.96,'d','p'
10.92,'d','p'
12.48,'d','p'
10.45,'d','p'
11.36,'d','p'
11.69,'d','p'
11.11,'d','p'
10.86,'d','p'
9.44,'d','p'
11.28,'d','p'
10.02,'d','p'
10.73,'d','p'
11.83,'d','p'
11.36,'d','p'
11.03,'d','p'
11.08,'d','p'
9.85,'d','p'
10.3,'d','p'
9.44,'d','p'
11.83,'d','p'
9.3,'d','p'
10.9,'d','p'
8.51,'d','p'
10.23,'d','p'
11.57,'d','p'
10.47,'d','p'
12.04,'d','p'
10.29,'d','p'
10.19,'d','p'
10.97,'d','p'
11.64,'d','p'
10.99,'d','p'
11.59,'d','p'
10.42,'d','p'
8.97,'d','p'
12.46,'d','p'
10.19,'d','p'
11.31,'d','p'
13.33,'d','p'
12.01,'d','p'
11.14,'d','p'
12.02,'d','p'
11.57,'d','p'
11.54,'d','p'
11.51,'d','p'
10.95,'d','p'
10.9,'d','p'
10.85,'d','p'
12.72,'d','p'
10.34,'d','p'
10.49,'d','p'
9.74,'d','p'
11.92,'d','p'
10.46,'d','p'
9.65,'d','p'
10.68,'d','p'
11.19,'d','p'
12.25,'d','p'
9.08,'d','p'
12.39,'d','p'
10.07,'d','p'
11.61,'d','p'
11.92,'d','p'
9.95,'d','p'
11.67,'d','p'
10.97,'d','p'
10.59,'d','p'
10.44,'d','p'
12.22,'d','p'
11.34,'d','p'
10.95,'d','p'
10.13,'d','p'
10.79,'d','p'
10.5,'d','p'
11.67,'d','p'
10.73,'d','p'
10.52,'d','p'
11.34,'d','p'
10.32,'d','p'
9.43,'d','p'
13.39,'d','p'
10.76,'d','p'
9.73,'d','p'
11.57,'d','p'
12.29,'d','p'
11.07,'d','p'
11.18,'d','p'
10.93,'d','p'
12.29,'d','p'
11.28,'d','p'
11.37,'d','p'
11.14,'d','p'
11.6,'d','p'
12.11,'d','p'
11.93,'d','p'
11.5,'d','p'
11.12,'d','p'
11.89,'d','p'
10.79,'d','p'
9.93,'d','p'
11.35,'d','p'
10.96,'d','p'
10.18,'d','p'
11.41,'d','p'
11.62,'d','p'
11.64,'d','p'
10.36,'d','p'
11.83,'d','p'
10.56,'d','p'
12.05,'d','p'
12.48,'d','p'
11.35,'d','p'
11.8,'d','p'
10.82,'d','p'
9.99,'d','p'
10.45,'d','p'
11.31,'d','p'
11.31,'d','p'
8.27,'d','p'
10.5,'d','p'
9.52,'d','p'
10.59,'d','p'
11.61,'d','p'
11.07,'d','p'
8.54,'d','p'
11.28,'d','p'
10.59,'d','p'
9.12,'d','p'
10.5,'d','p'
12.88,'d','p'
11.1,'d','p'
11.6,'d','p'
9.85,'d','p'
10.08,'d','p'
9.09,'d','p'
9.22,'d','p'
11.01,'d','p'
10.21,'d','p'
9.9,'d','p'
11.02,'d','p'
9.67,'d','p'
9.81,'d','p'
11.31,'d','p'
10.8,'d','p'
10.18,'d','p'
9.22,'d','p'
8.96,'d','p'
10.92,'d','p'
10.34,'d','p'
10.48,'d','p'
11.36,'d','p'
10.09,'d','p'
11.35,'d','p'
11.01,'d','p'
9.37,'d','p'
11.12,'d','p'
11.86,'d','p'
10.84,'d','p'
10.24,'d','p'
10.25,'d','p'
13.24,'d','p'
9.47,'d','p'
10.58,'d','p'
9.84,'d','p'
12.79,'d','p'
9.84,'d','p'
10.38,'d','p'
9.12,'d','p'
10.54,'d','p'
9.82,'d','p'
12.65,'d','p'
11.22,'d','p'
11.55,'d','p'
11.45,'d','p'
10.8,'d','p'
10.95,'d','p'
11.81,'d','p'
13.63,'d','p'
10.77,'d','p'
9.94,'d','p'
10.91,'d','p'
10.28,'d','p'
11.16,'d','p'
13.25,'d','p'
12.02,'d','p'
11.54,'d','p'
11.61,'d','p'
11.87,'d','p'
9.62,'d','p'
9.9,'d','p'
10.67,'d','p'
9.01,'d','p'
11.13,'d','p'
10.26,'d','p'
10.53,'d','p'
9.7,'d','p'
10.43,'d','p'
11.25,'d','p'
11.07,'d','p'
10.32,'d','p'
12.05,'d','p'
12.47,'d','p'
11.02,'d','p'
11.44,'d','p'
10.6,'d','p'
12.42,'d','p'
10.2,'d','p'
12.17,'d','p'
11.67,'d','p'
11.48,'d','p'
10.87,'d','p'
11.34,'d','p'
9.69,'d','p'
12.24,'d','p'
10.88,'d','p'
10.89,'d','p'
10.62,'d','p'
10.58,'d','p'
10.12,'d','p'
10.44,'d','p'
12.46,'d','p'
10.76,'d','p'
10.98,'d','p'
10.44,'d','p'
9.53,'d','p'
10.84,'d','p'
9.35,'d','p'
10.44,'d','p'
11.49,'d','p'
9.89,'d','p'
11.67,'d','p'
10.84,'d','p'
10.66,'d','p'
11.81,'d','p'
9.61,'d','p'
9.48,'d','p'
10.33,'d','p'
12,'d','p'
11.05,'d','p'
10.68,'d','p'
10.72,'d','p'
10.72,'d','p'
13.32,'d','p'
11.96,'d','p'
11.25,'d','p'
10.84,'d','p'
9.1,'d','p'
10.86,'d','p'
8.94,'d','p'
12.19,'d','p'
11.6,'d','p'
12.23,'d','p'
10.48,'d','p'
10.54,'d','p'
10.42,'d','p'
11.44,'d','p'
11.71,'d','p'
11.67,'d','p'
12.13,'d','p'
12.03,'d','p'
10.25,'d','p'
11.23,'d','p'
11.04,'d','p'
10.62,'d','p'
12.12,'d','p'
12.06,'d','p'
10.46,'d','p'
10.78,'d','p'
11.49,'d','p'
11.4,'d','p'
9.73,'d','p'
11.3,'d','p'
9.24,'d','p'
11.81,'d','p'
11.01,'d','p'
10.44,'d','p'
11.44,'d','p'
10.12,'d','p'
12.26,'d','p'
11.29,'d','p'
10.06,'d','p'
13.87,'d','p'
12.37,'d','p'
11.65,'d','p'
10.51,'d','p'
9.71,'d','p'
11.13,'d','p'
12.17,'d','p'
13.25,'d','p'
11.7,'d','p'
12,'d','p'
12.26,'d','p'
10.2,'d','p'
3.04,'d','e'
3.47,'d','e'
3.67,'d','e'
3.74,'d','e'
3.89,'d','e'
3.17,'d','e'
3.57,'d','e'
3.37,'d','e'
3,'d','e'
4.04,'d','e'
4.15,'d','e'
4,'d','e'
3.5,'d','e'
4.06,'d','e'
4,'d','e'
3.86,'d','e'
3.8,'d','e'
3.75,'d','e'
3.58,'d','e'
3.55,'d','e'
2.49,'d','e'
3.4,'d','e'
3.77,'d','e'
3.1,'d','e'
3.22,'d','e'
4.02,'d','e'
3.92,'d','e'
4.12,'d','e'
3.01,'d','e'
3.65,'d','e'
3.59,'d','e'
3.7,'d','e'
3.67,'d','e'
3.15,'d','e'
3.31,'d','e'
3.1,'d','e'
3.24,'d','e'
2.96,'d','e'
3.6,'d','e'
3.48,'d','e'
3.22,'d','e'
3.49,'d','e'
3.35,'d','e'
3.82,'d','e'
3.22,'d','e'
3.07,'d','e'
3.14,'d','e'
3.62,'d','e'
3.83,'d','e'
3.28,'d','e'
3.84,'d','e'
4.18,'d','e'
3.44,'d','e'
3.86,'d','e'
2.94,'d','e'
3.33,'d','e'
3.92,'d','e'
4.1,'d','e'
3.64,'d','e'
3.61,'d','e'
3.43,'d','e'
3.86,'d','e'
4.24,'d','e'
3.43,'d','e'
2.86,'d','e'
3.04,'d','e'
4.09,'d','e'
2.91,'d','e'
3.35,'d','e'
3.19,'d','e'
3.05,'d','e'
3.78,'d','e'
3.52,'d','e'
3.1,'d','e'
3.45,'d','e'
3.75,'d','e'
3.97,'d','e'
3.11,'d','e'
3.22,'d','e'
3.78,'d','e'
4.17,'d','e'
4.23,'d','e'
3.24,'d','e'
3.02,'d','e'
4.02,'d','e'
2.99,'d','e'
3.49,'d','e'
3.59,'d','e'
4.2,'d','e'
4.35,'d','e'
3.94,'d','e'
3.7,'d','e'
3.84,'d','e'
3.11,'d','e'
3.55,'d','e'
3.12,'d','e'
3.82,'d','e'
3.45,'d','e'
3.74,'d','e'
2.56,'d','e'
4.11,'d','e'
2.82,'d','e'
3.93,'d','e'
2.99,'d','e'
3.58,'d','e'
3.55,'d','e'
3.63,'d','e'
3.34,'d','e'
3.56,'d','e'
2.89,'d','e'
2.74,'d','e'
3.9,'d','e'
2.59,'d','e'
4.11,'d','e'
3.39,'d','e'
2.84,'d','e'
3.47,'d','e'
3.46,'d','e'
3.86,'d','e'
2.65,'d','e'
3.94,'d','e'
3.99,'d','e'
2.71,'d','e'
3.38,'d','e'
3.56,'d','e'
2.84,'d','e'
4.03,'d','e'
4.14,'d','e'
4.45,'d','e'
3.38,'d','e'
3.24,'d','e'
4.78,'d','e'
4.86,'d','e'
2.99,'d','e'
3.75,'d','e'
3.93,'d','e'
4.89,'d','e'
3,'d','e'
3.54,'d','e'
3.54,'d','e'
4.38,'d','e'
2.81,'d','e'
3.94,'d','e'
3.27,'d','e'
2.77,'d','e'
3.65,'d','e'
3.14,'d','e'
3.3,'d','e'
3.71,'d','e'
2.91,'d','e'
3.73,'d','e'
3.83,'d','e'
4.12,'d','e'
4.37,'d','e'
3.73,'d','e'
3.28,'d','e'
4.03,'d','e'
4.22,'d','e'
3.59,'d','e'
3.05,'d','e'
3.55,'d','e'
4.07,'d','e'
3.74,'d','e'
3.27,'d','e'
3.97,'d','e'
4.24,'d','e'
2.69,'d','e'
3.99,'d','e'
3.13,'d','e'
4.68,'d','e'
3.41,'d','e'
3.56,'d','e'
3.85,'d','e'
4.19,'d','e'
3.03,'d','e'
3.37,'d','e'
3.4,'d','e'
3.55,'d','e'
3.53,'d','e'
4.02,'d','e'
3.6,'d','e'
3.57,'d','e'
2.59,'d','e'
3.49,'d','e'
3.73,'d','e'
3.65,'d','e'
3.28,'d','e'
3.53,'d','e'
3.25,'d','e'
3.38,'d','e'
3.2,'d','e'
3.86,'d','e'
4.25,'d','e'
3.4,'d','e'
2.96,'d','e'
4.17,'d','e'
3.06,'d','e'
3.32,'d','e'
3.73,'d','e'
2.27,'d','e'
4.17,'d','e'
3.74,'d','e'
4.72,'d','e'
3.05,'d','e'
2.59,'d','e'
4.26,'d','e'
3.6,'d','e'
3,'d','e'
3.35,'d','e'
4.57,'d','e'
3.67,'d','e'
4.06,'d','e'
4.65,'d','e'
2.76,'d','e'
3.73,'d','e'
3.01,'d','e'
3.75,'d','e'
2.88,'d','e'
3.44,'d','e'
4.55,'d','e'
4.39,'d','e'
2.78,'d','e'
3.54,'d','e'
3.44,'d','e'
3.11,'d','e'
2.72,'d','e'
2.67,'d','e'
3.83,'d','e'
3.41,'d','e'
3.24,'d','e'
3.3,'d','e'
3.63,'d','e'
3.17,'d','e'
3.09,'d','e'
3.35,'d','e'
3.76,'d','e'
3.74,'d','e'
3.22,'d','e'
2.78,'d','e'
3.64,'d','e'
3.07,'d','e'
2.96,'d','e'
3.17,'d','e'
3.54,'d','e'
3.28,'d','e'
3.21,'d','e'
2.92,'d','e'
3.63,'d','e'
3.52,'d','e'
3.3,'d','e'
5.11,'d','e'
3.83,'d','e'
3.67,'d','e'
2.9,'d','e'
3.6,'d','e'
3.55,'d','e'
2.75,'d','e'
2.97,'d','e'
3.81,'d','e'
3.13,'d','e'
3.24,'d','e'
3.43,'d','e'
2.73,'d','e'
4.78,'d','e'
3.31,'d','e'
2.97,'d','e'
4.16,'d','e'
4.47,'d','e'
2.94,'d','e'
3.74,'d','e'
4.1,'d','e'
2.77,'d','e'
2.83,'d','e'
3.5,'d','e'
3.7,'d','e'
3.53,'d','e'
2.17,'d','e'
3.36,'d','e'
3.42,'d','e'
3.59,'d','e'
3.62,'d','e'
4.57,'d','e'
2.52,'d','e'
2.84,'d','e'
4.54,'d','e'
2.78,'d','e'
3.36,'d','e'
3.22,'d','e'
3.23,'d','e'
3.55,'d','e'
2.95,'d','e'
3.6,'d','e'
3.7,'d','e'
4,'d','e'
4.01,'d','e'
4.01,'d','e'
2.87,'d','e'
2.53,'d','e'
4.7,'d','e'
4.24,'d','e'
4.61,'d','e'
3.19,'d','e'
4.54,'d','e'
2.95,'d','e'
3.76,'d','e'
3.56,'d','e'
3.24,'d','e'
3.44,'d','e'
3.83,'d','e'
3.02,'d','e'
3.27,'d','e'
3.52,'d','e'
3.48,'d','e'
3.3,'d','e'
3.46,'d','e'
3.68,'d','e'
3.38,'d','e'
3.77,'d','e'
2.53,'d','e'
3.16,'d','e'
4.13,'d','e'
2.98,'d','e'
3.47,'d','e'
2.43,'d','e'
3.26,'d','e'
3.78,'d','e'
3.43,'d','e'
2.81,'d','e'
3.57,'d','e'
3.22,'d','e'
3.24,'d','e'
2.92,'d','e'
3.57,'d','e'
2.61,'d','e'
4.14,'d','e'
3.31,'d','e'
3.41,'d','e'
4.04,'d','e'
3.69,'d','e'
2.79,'d','e'
3.33,'d','e'
3.34,'d','e'
2.89,'d','e'
3.87,'d','e'
3.83,'d','e'
4.27,'d','e'
2.88,'d','e'
3.27,'d','e'
3.63,'d','e'
4.06,'d','e'
3.02,'d','e'
3.33,'d','e'
3.04,'d','e'
8.46,'d','p'
8.51,'d','p'
5.67,'d','p'
10.99,'d','p'
7.33,'d','p'
9.59,'d','p'
9.87,'d','p'
9.93,'d','p'
10.82,'d','p'
9.42,'d','p'
7.38,'d','p'
9.6,'d','p'
7.92,'d','p'
8.23,'d','p'
8.68,'d','p'
9.53,'d','p'
9.1,'d','p'
9.17,'d','p'
9.8,'d','p'
8.91,'d','p'
9.66,'d','p'
11.65,'d','p'
12.91,'d','p'
9.5,'d','p'
8.24,'d','p'
10.39,'d','p'
11.96,'d','p'
8.04,'d','p'
9.33,'d','p'
9.91,'d','p'
11.19,'d','p'
9.62,'d','p'
10.6,'d','p'
8.72,'d','p'
12.25,'d','p'
9.64,'d','p'
10.12,'d','p'
9.47,'d','p'
9.54,'d','p'
10.85,'d','p'
13,'d','p'
7.68,'d','p'
11.98,'d','p'
11.45,'d','p'
7.23,'d','p'
7.5,'d','p'
8.21,'d','p'
10.49,'d','p'
7.8,'d','p'
10.67,'d','p'
9.57,'d','p'
11.83,'d','p'
8.36,'d','p'
8.9,'d','p'
7.04,'d','p'
8.49,'d','p'
7.2,'d','p'
5.83,'d','p'
10.52,'d','p'
9.93,'d','p'
7.55,'d','p'
6.09,'d','p'
10.83,'d','p'
10.92,'d','p'
9.74,'d','p'
11.11,'d','p'
9.44,'d','p'
10.57,'d','p'
8.95,'d','p'
10.76,'d','p'
8.06,'d','p'
7.42,'d','p'
11.43,'d','p'
9.56,'d','p'
10.16,'d','p'
10.22,'d','p'
9.61,'d','p'
9.53,'d','p'
7.13,'d','p'
10.86,'d','p'
10.35,'d','p'
9.94,'d','p'
10.44,'d','p'
10.05,'d','p'
9.71,'d','p'
7.95,'d','p'
9.41,'d','p'
9.28,'d','p'
8.06,'d','p'
12.29,'d','p'
10.18,'d','p'
10.12,'d','p'
9.64,'d','p'
9.42,'d','p'
9.22,'d','p'
11.37,'d','p'
9.18,'d','p'
9.9,'d','p'
10.79,'d','p'
7.2,'d','p'
8.89,'d','p'
10.79,'d','p'
5.82,'d','p'
10.67,'d','p'
10,'d','p'
8.35,'d','p'
6.79,'d','p'
9.75,'d','p'
9.01,'d','p'
8.97,'d','p'
8.83,'d','p'
10.72,'d','p'
9.05,'d','p'
9.56,'d','p'
7.59,'d','p'
13.79,'d','p'
8.21,'d','p'
8.2,'d','p'
10.17,'d','p'
7.46,'d','p'
8.69,'d','p'
10.58,'d','p'
9.71,'d','p'
8.64,'d','p'
11.07,'d','p'
8.32,'d','p'
8.73,'d','p'
10.37,'d','p'
12,'d','p'
9.45,'d','p'
10.34,'d','p'
8.97,'d','p'
11.36,'d','p'
7.91,'d','p'
9.04,'d','p'
8.5,'d','p'
11.79,'d','p'
10.07,'d','p'
9.33,'d','p'
7.52,'d','p'
12.43,'d','p'
11.35,'d','p'
10,'d','p'
10.99,'d','p'
9.35,'d','p'
10.83,'d','p'
9.23,'d','p'
10.38,'d','p'
9.67,'d','p'
8.53,'d','p'
10.36,'d','p'
7.99,'d','p'
11.04,'d','p'
11.08,'d','p'
9.25,'d','p'
8.15,'d','p'
9.73,'d','p'
11.38,'d','p'
7.1,'d','p'
9.37,'d','p'
8.04,'d','p'
8.41,'d','p'
10.23,'d','p'
12.94,'d','p'
10.79,'d','p'
6.99,'d','p'
10.93,'d','p'
8.03,'d','p'
8.82,'d','p'
7.25,'d','p'
8.58,'d','p'
11.16,'d','p'
9.78,'d','p'
11.46,'d','p'
11.97,'d','p'
9.41,'d','p'
8.55,'d','p'
9.2,'d','p'
7.02,'d','p'
7.67,'d','p'
11.21,'d','p'
8.41,'d','p'
9.47,'d','p'
8.79,'d','p'
10.89,'d','p'
8.45,'d','p'
6.78,'d','p'
10.94,'d','p'
8.78,'d','p'
11.1,'d','p'
12.65,'d','p'
9.58,'d','p'
10.52,'d','p'
11.67,'d','p'
10.01,'d','p'
7.81,'d','p'
10.67,'d','p'
11.73,'d','p'
10.17,'d','p'
11.05,'d','p'
10.59,'d','p'
7.45,'d','p'
8.2,'d','p'
10.12,'d','p'
9.86,'d','p'
8.78,'d','p'
8.83,'d','p'
8.56,'d','p'
9.69,'d','p'
10.23,'d','p'
8.4,'d','p'
10.35,'d','p'
5.79,'d','p'
9.83,'d','p'
9.12,'d','p'
8.55,'d','p'
8.98,'d','p'
8.99,'d','p'
8.48,'d','p'
7.16,'d','p'
10.37,'d','p'
8.6,'d','p'
9.69,'d','p'
11.17,'d','p'
10.48,'d','p'
9.24,'d','p'
9.93,'d','p'
10.81,'d','p'
11.47,'d','p'
7.79,'d','p'
7.77,'d','p'
6.34,'d','p'
10.89,'d','p'
9.2,'d','p'
9.12,'d','p'
7.04,'d','p'
7.99,'d','p'
8.54,'d','p'
10.32,'d','p'
10.62,'d','p'
11.6,'d','p'
5.87,'d','p'
8.59,'d','p'
10.37,'d','p'
8.38,'d','p'
7.92,'d','p'
9,'d','p'
8.69,'d','p'
9.2,'d','p'
8.78,'d','p'
7.56,'d','p'
9.44,'d','p'
8.76,'d','p'
8.35,'d','p'
10.18,'d','p'
7.97,'d','p'
10.47,'d','p'
9.52,'d','p'
8.74,'d','p'
9.16,'d','p'
11.42,'d','p'
10.95,'d','p'
12.43,'d','p'
9.89,'d','p'
6.88,'d','p'
9.35,'d','p'
10.69,'d','p'
12.13,'d','p'
9.38,'d','p'
9.36,'d','p'
8.15,'d','p'
8.97,'d','p'
8.93,'d','p'
11.15,'d','p'
9.39,'d','p'
11.39,'d','p'
8.59,'d','p'
9.58,'d','p'
8.42,'d','p'
8.82,'d','p'
12.37,'d','p'
7.42,'d','p'
10.75,'d','p'
5.59,'d','p'
7.09,'d','p'
10.09,'d','p'
9.06,'d','p'
9.15,'d','p'
9.73,'d','p'
10.46,'d','p'
8.01,'d','p'
8.49,'d','p'
7.83,'d','p'
11.92,'d','p'
9.72,'d','p'
7.82,'d','p'
10.07,'d','p'
8.09,'d','p'
9.91,'d','p'
11.14,'d','p'
9.95,'d','p'
8.27,'d','p'
10.12,'d','p'
9.45,'d','p'
8.49,'d','p'
8.11,'d','p'
10.49,'d','p'
10.87,'d','p'
11.5,'d','p'
9.64,'d','p'
8.59,'d','p'
8.23,'d','p'
9,'d','p'
7.87,'d','p'
9.97,'d','p'
10.27,'d','p'
8.78,'d','p'
8.02,'d','p'
7.3,'d','p'
7.9,'d','p'
7.92,'d','p'
10.47,'d','p'
7.94,'d','p'
10.5,'d','p'
10.63,'d','p'
8.96,'d','p'
8.73,'d','p'
10.4,'d','p'
8.18,'d','p'
10.58,'d','p'
10.63,'d','p'
10.76,'d','p'
11.33,'d','p'
8.62,'d','p'
10.43,'d','p'
8.66,'d','p'
6.84,'d','p'
8.59,'d','p'
7.5,'d','p'
9.39,'d','p'
9.12,'d','p'
10.08,'d','p'
8.78,'d','p'
7.78,'d','p'
6.77,'d','p'
10.64,'d','p'
9.3,'d','p'
7.1,'d','p'
6.61,'d','p'
11.28,'d','p'
8.2,'d','p'
12.62,'d','p'
10.62,'d','p'
4.8,'d','e'
4.86,'d','e'
4.65,'d','e'
3.97,'d','e'
4.54,'d','e'
4.94,'d','e'
4.75,'d','e'
4.24,'d','e'
4.48,'d','e'
4.51,'d','e'
4.53,'d','e'
4.42,'d','e'
4.52,'d','e'
5.61,'d','e'
4.57,'d','e'
5.04,'d','e'
3.9,'d','e'
4.23,'d','e'
4.87,'d','e'
3.91,'d','e'
4.63,'d','e'
4.46,'d','e'
3.73,'d','e'
4.76,'d','e'
4.21,'d','e'
3.35,'d','e'
4.34,'d','e'
3.84,'d','e'
4.82,'d','e'
3.49,'d','e'
5.35,'d','e'
3.41,'d','e'
3.7,'d','e'
4.44,'d','e'
5.14,'d','e'
4.7,'d','e'
4.2,'d','e'
4.82,'d','e'
4.45,'d','e'
3.8,'d','e'
4.95,'d','e'
4.11,'d','e'
4.68,'d','e'
5.31,'d','e'
5.14,'d','e'
5.26,'d','e'
3.6,'d','e'
4.29,'d','e'
5.43,'d','e'
4.4,'d','e'
4.07,'d','e'
5.26,'d','e'
4.06,'d','e'
4.84,'d','e'
3.87,'d','e'
5.11,'d','e'
4.74,'d','e'
4.58,'d','e'
4.62,'d','e'
4.41,'d','e'
4.67,'d','e'
4.22,'d','e'
4.37,'d','e'
4.12,'d','e'
4.13,'d','e'
4.83,'d','e'
3.97,'d','e'
4.13,'d','e'
3.85,'d','e'
4.32,'d','e'
4.11,'d','e'
4.24,'d','e'
4.82,'d','e'
4.71,'d','e'
3.97,'d','e'
4.67,'d','e'
3.94,'d','e'
4.95,'d','e'
3.13,'d','e'
3.86,'d','e'
5.19,'d','e'
3.66,'d','e'
4.77,'d','e'
3.9,'d','e'
4.63,'d','e'
3.99,'d','e'
4.86,'d','e'
4.6,'d','e'
4.83,'d','e'
5.48,'d','e'
3.37,'d','e'
3.74,'d','e'
4.51,'d','e'
4.33,'d','e'
4.54,'d','e'
4.12,'d','e'
5.09,'d','e'
4.15,'d','e'
4.15,'d','e'
4.51,'d','e'
5.53,'d','e'
4.73,'d','e'
4.41,'d','e'
4.32,'d','e'
4.34,'d','e'
5.06,'d','e'
5.27,'d','e'
3.62,'d','e'
4.66,'d','e'
4.44,'d','e'
4.09,'d','e'
4.41,'d','e'
4.29,'d','e'
4.46,'d','e'
4.65,'d','e'
4.36,'d','e'
4.62,'d','e'
4.34,'d','e'
5.35,'d','e'
3.61,'d','e'
4.61,'d','e'
5.73,'d','e'
4.15,'d','e'
4.3,'d','e'
4.77,'d','e'
5.05,'d','e'
4.35,'d','e'
4.8,'d','e'
3.51,'d','e'
5.33,'d','e'
5.68,'d','e'
4.25,'d','e'
5.48,'d','e'
4.15,'d','e'
4.19,'d','e'
4.94,'d','e'
4.28,'d','e'
4.79,'d','e'
3.8,'d','e'
5.34,'d','e'
4.84,'d','e'
5.29,'d','e'
4.38,'d','e'
4.26,'d','e'
4.22,'d','e'
4.85,'d','e'
4.79,'d','e'
5.11,'d','e'
4.81,'d','e'
4.46,'d','e'
4.68,'d','e'
4.61,'d','e'
4.38,'d','e'
5.33,'d','e'
4.72,'d','e'
4.43,'d','e'
4.29,'d','e'
4.76,'d','e'
3.85,'d','e'
4.16,'d','e'
4.89,'d','e'
4,'d','e'
5.19,'d','e'
5.38,'d','e'
4.72,'d','e'
3.56,'d','e'
3.92,'d','e'
4.59,'d','e'
3.99,'d','e'
5.17,'d','e'
4.67,'d','e'
4.79,'d','e'
4.31,'d','e'
4.78,'d','e'
4.49,'d','e'
4.32,'d','e'
3.63,'d','e'
4.02,'d','e'
3.82,'d','e'
4.1,'d','e'
3.74,'d','e'
4.58,'d','e'
3.88,'d','e'
3.74,'d','e'
4.24,'d','e'
4.68,'d','e'
4.89,'d','e'
4.29,'d','e'
4.33,'d','e'
4.15,'d','e'
5.64,'d','e'
4.19,'d','e'
4.09,'d','e'
4.34,'d','e'
4.8,'d','e'
4.38,'d','e'
4.3,'d','e'
4.2,'d','e'
4.46,'d','e'
4.49,'d','e'
4.09,'d','e'
4.71,'d','e'
3.95,'d','e'
4.69,'d','e'
4.62,'d','e'
4.81,'d','e'
4.12,'d','e'
4.06,'d','e'
4.29,'d','e'
4.77,'d','e'
4.89,'d','e'
4.4,'d','e'
4.35,'d','e'
4.49,'d','e'
3.35,'d','e'
4.29,'d','e'
4.49,'d','e'
5.19,'d','e'
5.38,'d','e'
4.53,'d','e'
4.09,'d','e'
4.64,'d','e'
4.17,'d','e'
4.86,'d','e'
5.62,'d','e'
4.26,'d','e'
4.94,'d','e'
4.54,'d','e'
4.47,'d','e'
4.14,'d','e'
3.93,'d','e'
3.39,'d','e'
4.39,'d','e'
4.62,'d','e'
4,'d','e'
4.21,'d','e'
5.54,'d','e'
4.7,'d','e'
5,'d','e'
4.68,'d','e'
4.66,'d','e'
4.28,'d','e'
4.24,'d','e'
4.92,'d','e'
4.61,'d','e'
4.63,'d','e'
4.85,'d','e'
5.04,'d','e'
4.24,'d','e'
4.79,'d','e'
4.6,'d','e'
5.36,'d','e'
4.82,'d','e'
4.9,'d','e'
5.37,'d','e'
4.81,'d','e'
4.93,'d','e'
5.48,'d','e'
4.65,'d','e'
5.28,'d','e'
5.09,'d','e'
4.21,'d','e'
4.67,'d','e'
4.76,'d','e'
4.6,'d','e'
4.86,'d','e'
3.55,'d','e'
4.33,'d','e'
4.19,'d','e'
4.25,'d','e'
5.17,'d','e'
4.73,'d','e'
4.57,'d','e'
4.69,'d','e'
4.99,'d','e'
4,'d','e'
4.53,'d','e'
4.37,'d','e'
3.66,'d','e'
4.16,'d','e'
5.13,'d','e'
3.9,'d','e'
4.36,'d','e'
4.39,'d','e'
4.4,'d','e'
3.92,'d','e'
4.9,'d','e'
3.82,'d','e'
3.81,'d','e'
4.22,'d','e'
4.74,'d','e'
4.46,'d','e'
3.93,'d','e'
4.51,'d','e'
4.12,'d','e'
4.45,'d','e'
3.46,'d','e'
3.73,'d','e'
5.3,'d','e'
4.47,'d','e'
4.32,'d','e'
4.22,'d','e'
4.83,'d','e'
5.37,'d','e'
4.98,'d','e'
4.41,'d','e'
4.38,'d','e'
4.74,'d','e'
3.91,'d','e'
3.49,'d','e'
3.87,'d','e'
5.68,'d','e'
4.76,'d','e'
4.52,'d','e'
4.33,'d','e'
4.56,'d','e'
4.95,'d','e'
3.74,'d','e'
4.27,'d','e'
4.37,'d','e'
5.06,'d','e'
4.16,'d','e'
4.15,'d','e'
4.64,'d','e'
3.75,'d','e'
3.62,'d','e'
5.15,'d','e'
3.6,'d','e'
4.71,'d','e'
4.06,'d','e'
4.86,'d','e'
4.77,'d','e'
4.91,'d','e'
4.52,'d','e'
3.41,'d','e'
5.01,'d','e'
6.05,'d','e'
4.81,'d','e'
6.06,'d','e'
4.64,'d','e'
5.01,'d','e'
4.09,'d','e'
4.2,'d','e'
4.3,'d','e'
4.77,'d','e'
5.22,'d','e'
4.42,'d','e'
4.67,'d','e'
4.45,'d','e'
4.64,'d','e'
4.05,'d','e'
3.88,'d','e'
4.51,'d','e'
19.11,'d','e'
16.91,'d','e'
16.5,'d','e'
18.37,'d','e'
17.89,'d','e'
20.39,'d','e'
20.97,'d','e'
18.4,'d','e'
19.48,'d','e'
17.34,'d','e'
16.19,'d','e'
14.82,'d','e'
19.62,'d','e'
18.57,'d','e'
22.38,'d','e'
18.64,'d','e'
20.32,'d','e'
13.76,'d','e'
21.45,'d','e'
17.21,'d','e'
20.95,'d','e'
17.27,'d','e'
20.69,'d','e'
21.68,'d','e'
21.51,'d','e'
18.89,'d','e'
20.5,'d','e'
20.41,'d','e'
18.45,'d','e'
18.01,'d','e'
18.57,'d','e'
15.08,'d','e'
18.85,'d','e'
14.85,'d','e'
18.39,'d','e'
16.29,'d','e'
17.83,'d','e'
21.6,'d','e'
17.84,'d','e'
19.89,'d','e'
20.58,'d','e'
14.35,'d','e'
19.47,'d','e'
17.42,'d','e'
15.54,'d','e'
22.63,'d','e'
14.99,'d','e'
23.05,'d','e'
18.11,'d','e'
20.41,'d','e'
21.48,'d','e'
16.94,'d','e'
16.53,'d','e'
18.93,'d','e'
15.66,'d','e'
18.07,'d','e'
18.87,'d','e'
21.7,'d','e'
18.87,'d','e'
17.8,'d','e'
17.26,'d','e'
16.89,'d','e'
16.16,'d','e'
20.05,'d','e'
17.6,'d','e'
19.45,'d','e'
17.14,'d','e'
18.42,'d','e'
19.47,'d','e'
19.07,'d','e'
17.85,'d','e'
18.78,'d','e'
21.02,'d','e'
19.67,'d','e'
22.71,'d','e'
23.24,'d','e'
19.53,'d','e'
20.52,'d','e'
18.95,'d','e'
18.16,'d','e'
19.32,'d','e'
20.97,'d','e'
15.9,'d','e'
21.75,'d','e'
18.85,'d','e'
18.66,'d','e'
19.96,'d','e'
18.46,'d','e'
17.47,'d','e'
14.46,'d','e'
17.9,'d','e'
18.49,'d','e'
18.71,'d','e'
19.64,'d','e'
24.34,'d','e'
18.6,'d','e'
19.68,'d','e'
20.62,'d','e'
19.66,'d','e'
19.92,'d','e'
17.36,'d','e'
18.27,'d','e'
15.52,'d','e'
19.14,'d','e'
16.96,'d','e'
15.65,'d','e'
19.17,'d','e'
14.31,'d','e'
18.6,'d','e'
17.23,'d','e'
22.7,'d','e'
18.83,'d','e'
20.57,'d','e'
17.98,'d','e'
17.5,'d','e'
17.09,'d','e'
20.2,'d','e'
17.38,'d','e'
18.58,'d','e'
16.38,'d','e'
18.9,'d','e'
19.78,'d','e'
22.22,'d','e'
17.43,'d','e'
20.01,'d','e'
20.41,'d','e'
17,'d','e'
17.17,'d','e'
16.73,'d','e'
22.67,'d','e'
18.69,'d','e'
17.5,'d','e'
17.19,'d','e'
19.36,'d','e'
15.76,'d','e'
16.32,'d','e'
20.63,'d','e'
16.36,'d','e'
21.81,'d','e'
21.16,'d','e'
18.59,'d','e'
19.08,'d','e'
15.77,'d','e'
20.73,'d','e'
19.82,'d','e'
14.78,'d','e'
15.97,'d','e'
19.09,'d','e'
15.91,'d','e'
16.19,'d','e'
18,'d','e'
17.48,'d','e'
19.24,'d','e'
18.71,'d','e'
20.93,'d','e'
21.24,'d','e'
17.8,'d','e'
20.53,'d','e'
20.94,'d','e'
17.68,'d','e'
20.6,'d','e'
18.19,'d','e'
16.6,'d','e'
14.89,'d','e'
19.51,'d','e'
17.72,'d','e'
14.65,'d','e'
19.46,'d','e'
17.21,'d','e'
19.58,'d','e'
14.63,'d','e'
19.11,'d','e'
19.02,'d','e'
17.54,'d','e'
19.32,'d','e'
19.66,'d','e'
20.77,'d','e'
17.49,'d','e'
23.71,'d','e'
20.25,'d','e'
20.51,'d','e'
19.73,'d','e'
21.09,'d','e'
18.61,'d','e'
15.91,'d','e'
18.78,'d','e'
18.44,'d','e'
20.58,'d','e'
16.79,'d','e'
18.56,'d','e'
16.22,'d','e'
15.51,'d','e'
19.6,'d','e'
20.73,'d','e'
16.97,'d','e'
14.11,'d','e'
18.14,'d','e'
21.02,'d','e'
18.02,'d','e'
19.19,'d','e'
13.56,'d','e'
20.66,'d','e'
19.59,'d','e'
18.29,'d','e'
21.57,'d','e'
17.88,'d','e'
17.43,'d','e'
18.88,'d','e'
20.16,'d','e'
15.51,'d','e'
16.9,'d','e'
20.04,'d','e'
19.1,'d','e'
15.3,'d','e'
18.46,'d','e'
18.69,'d','e'
18.63,'d','e'
15.78,'d','e'
15.29,'d','e'
18.71,'d','e'
18.14,'d','e'
16.42,'d','e'
16.3,'d','e'
18.05,'d','e'
18.99,'d','e'
18.35,'d','e'
17.05,'d','e'
19.82,'d','e'
22.63,'d','e'
18.62,'d','e'
21.1,'d','e'
17.59,'d','e'
19.17,'d','e'
20.88,'d','e'
19.32,'d','e'
19.2,'d','e'
21.77,'d','e'
17.57,'d','e'
19.96,'d','e'
19.89,'d','e'
13.96,'d','e'
17.98,'d','e'
17.92,'d','e'
16.29,'d','e'
20.15,'d','e'
20.56,'d','e'
17.64,'d','e'
19.41,'d','e'
17.3,'d','e'
16.5,'d','e'
18.45,'d','e'
17.64,'d','e'
16.68,'d','e'
23.56,'d','e'
16.69,'d','e'
18.61,'d','e'
18.5,'d','e'
18.79,'d','e'
17.14,'d','e'
17.83,'d','e'
20.12,'d','e'
15.77,'d','e'
18.28,'d','e'
20.5,'d','e'
19.61,'d','e'
16.49,'d','e'
18.3,'d','e'
18.52,'d','e'
12.55,'d','e'
19.78,'d','e'
18.87,'d','e'
18.54,'d','e'
14.84,'d','e'
14.5,'d','e'
16.98,'d','e'
17.87,'d','e'
19.85,'d','e'
17.21,'d','e'
18.5,'d','e'
19.08,'d','e'
21.58,'d','e'
18.41,'d','e'
16.52,'d','e'
17.22,'d','e'
17.38,'d','e'
17.93,'d','e'
17.49,'d','e'
18.28,'d','e'
20.74,'d','e'
17,'d','e'
20.75,'d','e'
20.98,'d','e'
16.69,'d','e'
18.01,'d','e'
21.61,'d','e'
17.99,'d','e'
18.25,'d','e'
21.33,'d','e'
20.92,'d','e'
18.28,'d','e'
19.32,'d','e'
23.38,'d','e'
17.8,'d','e'
11.09,'d','e'
14.39,'d','e'
20.21,'d','e'
17.12,'d','e'
19.46,'d','e'
22.38,'d','e'
18.75,'d','e'
21.86,'d','e'
19.37,'d','e'
14.05,'d','e'
16.01,'d','e'
20.41,'d','e'
15.43,'d','e'
22.11,'d','e'
18.69,'d','e'
16.97,'d','e'
18.39,'d','e'
16.59,'d','e'
14.7,'d','e'
17.59,'d','e'
17.49,'d','e'
18.42,'d','e'
15.42,'d','e'
17.28,'d','e'
17.37,'d','e'
18.4,'d','e'
18.8,'d','e'
20.91,'d','e'
16.89,'d','e'
16.16,'d','e'
18.14,'d','e'
20.34,'d','e'
21.53,'d','e'
17.76,'d','e'
14.91,'d','e'
18.98,'d','e'
18.3,'d','e'
23.77,'d','e'
17.63,'d','e'
16.4,'d','e'
17.54,'d','e'
17.76,'d','e'
21.31,'d','e'
17.91,'d','e'
16.02,'d','e'
18.19,'d','e'
15.18,'d','e'
19.83,'d','e'
17.92,'d','e'
19.27,'d','e'
7.05,'d','e'
6.98,'d','e'
8.22,'d','e'
6.46,'d','e'
7.32,'d','e'
8.17,'d','e'
7.84,'d','e'
8.08,'d','e'
7.84,'d','e'
7.58,'d','e'
6.77,'d','e'
6.6,'d','e'
5.5,'d','e'
6.84,'d','e'
7.57,'d','e'
7.77,'d','e'
7.41,'d','e'
9.7,'d','e'
7.59,'d','e'
5.18,'d','e'
7.11,'d','e'
8.51,'d','e'
7.13,'d','e'
7.67,'d','e'
8.29,'d','e'
6.45,'d','e'
7.44,'d','e'
8.66,'d','e'
8.38,'d','e'
7.43,'d','e'
6,'d','e'
7.3,'d','e'
8.33,'d','e'
8.78,'d','e'
6.68,'d','e'
8.59,'d','e'
9.04,'d','e'
7.17,'d','e'
7.24,'d','e'
9.24,'d','e'
8.85,'d','e'
5.66,'d','e'
7.88,'d','e'
8.31,'d','e'
6.83,'d','e'
6.77,'d','e'
7.65,'d','e'
7.47,'d','e'
6.59,'d','e'
6.15,'d','e'
6.66,'d','e'
8.86,'d','e'
6.53,'d','e'
8.46,'d','e'
8.21,'d','e'
6.76,'d','e'
6.22,'d','e'
7.21,'d','e'
9.03,'d','e'
8.68,'d','e'
7.38,'d','e'
8.02,'d','e'
6.81,'d','e'
7.24,'d','e'
7.17,'d','e'
7.52,'d','e'
7.67,'d','e'
6.79,'d','e'
6.94,'d','e'
8.13,'d','e'
7.92,'d','e'
9.05,'d','e'
7.24,'d','e'
8.01,'d','e'
7.96,'d','e'
7.58,'d','e'
6.69,'d','e'
8.3,'d','e'
9.63,'d','e'
6.77,'d','e'
7.89,'d','e'
8.23,'d','e'
7.9,'d','e'
7.36,'d','e'
7.47,'d','e'
7.47,'d','e'
5.87,'d','e'
7.78,'d','e'
7.05,'d','e'
7.73,'d','e'
5.9,'d','e'
8.79,'d','e'
7.96,'d','e'
8.14,'d','e'
7.36,'d','e'
7.04,'d','e'
8.34,'d','e'
8.23,'d','e'
8.58,'d','e'
7.6,'d','e'
6.22,'d','e'
6.74,'d','e'
7.27,'d','e'
6.94,'d','e'
7.53,'d','e'
6.52,'d','e'
8.02,'d','e'
7.28,'d','e'
8.83,'d','e'
7.86,'d','e'
7.19,'d','e'
6.8,'d','e'
7.69,'d','e'
7.64,'d','e'
8.92,'d','e'
7.3,'d','e'
7.49,'d','e'
7.59,'d','e'
7.85,'d','e'
5.2,'d','e'
7.59,'d','e'
9.47,'d','e'
7.48,'d','e'
7.09,'d','e'
7.64,'d','e'
7.54,'d','e'
6.59,'d','e'
8.07,'d','e'
8.07,'d','e'
7.15,'d','e'
7.78,'d','e'
6.59,'d','e'
7.84,'d','e'
8.09,'d','e'
6.35,'d','e'
7.4,'d','e'
7.1,'d','e'
6.08,'d','e'
7.66,'d','e'
8.27,'d','e'
7.43,'d','e'
7.21,'d','e'
7.75,'d','e'
6.21,'d','e'
8.02,'d','e'
6.28,'d','e'
7.44,'d','e'
7.71,'d','e'
9.05,'d','e'
6.54,'d','e'
6.81,'d','e'
7.74,'d','e'
9.1,'d','e'
8.72,'d','e'
9.15,'d','e'
8.49,'d','e'
7.21,'d','e'
8.77,'d','e'
6.41,'d','e'
7.7,'d','e'
8.18,'d','e'
7.02,'d','e'
6.8,'d','e'
8.23,'d','e'
8.31,'d','e'
7.06,'d','e'
8.1,'d','e'
6.4,'d','e'
7.16,'d','e'
6.62,'d','e'
6.29,'d','e'
7.81,'d','e'
6.33,'d','e'
6.7,'d','e'
7.31,'d','e'
8.27,'d','e'
7.35,'d','e'
8.87,'d','e'
7.01,'d','e'
7.15,'d','e'
7.57,'d','e'
8.59,'d','e'
7.94,'d','e'
7.03,'d','e'
6.87,'d','e'
8.21,'d','e'
7.57,'d','e'
7.76,'d','e'
7.83,'d','e'
7.42,'d','e'
9.23,'d','e'
8.55,'d','e'
6.08,'d','e'
6.88,'d','e'
8.32,'d','e'
7.06,'d','e'
7.45,'d','e'
7.39,'d','e'
6.87,'d','e'
8.67,'d','e'
7.5,'d','e'
7.48,'d','e'
8.26,'d','e'
8.13,'d','e'
7.59,'d','e'
6.57,'d','e'
6.57,'d','e'
8.81,'d','e'
8.12,'d','e'
7.51,'d','e'
7.64,'d','e'
7.02,'d','e'
7.94,'d','e'
7.2,'d','e'
8.13,'d','e'
7.2,'d','e'
8.24,'d','e'
6.26,'d','e'
6.84,'d','e'
8.35,'d','e'
8.25,'d','e'
7.51,'d','e'
6.18,'d','e'
8.12,'d','e'
7.42,'d','e'
5.81,'d','e'
6.68,'d','e'
8.52,'d','e'
6.29,'d','e'
6.14,'d','e'
8.5,'d','e'
7.51,'d','e'
7.97,'d','e'
6.58,'d','e'
8.76,'d','e'
6.67,'d','e'
6.84,'d','e'
7.88,'d','e'
7.5,'d','e'
8.22,'d','e'
7.66,'d','e'
8.71,'d','e'
6.41,'d','e'
8.29,'d','e'
6.99,'d','e'
6.89,'d','e'
8.73,'d','e'
7.88,'d','e'
6.45,'d','e'
7.06,'d','e'
6.54,'d','e'
7.06,'d','e'
7.16,'d','e'
7.81,'d','e'
6.19,'d','e'
8.58,'d','e'
6.15,'d','e'
7.98,'d','e'
6.76,'d','e'
7.09,'d','e'
7.01,'d','e'
7.52,'d','e'
6.9,'d','e'
7.46,'d','e'
7.74,'d','e'
7.99,'d','e'
7.63,'d','e'
7.32,'d','e'
6.95,'d','e'
6.62,'d','e'
7.09,'d','e'
8.14,'d','e'
6.55,'d','e'
8.24,'d','e'
6.79,'d','e'
7.4,'d','e'
6.27,'d','e'
8.26,'d','e'
7.39,'d','e'
8.75,'d','e'
7.96,'d','e'
7.89,'d','e'
5.54,'d','e'
6.52,'d','e'
7.41,'d','e'
6.3,'d','e'
7.38,'d','e'
7.36,'d','e'
7.09,'d','e'
6.46,'d','e'
7.1,'d','e'
7.45,'d','e'
6.39,'d','e'
7.75,'d','e'
6.92,'d','e'
7.75,'d','e'
8.63,'d','e'
8.08,'d','e'
7.74,'d','e'
7.29,'d','e'
6.83,'d','e'
7.6,'d','e'
8.31,'d','e'
8.38,'d','e'
7.05,'d','e'
6.68,'d','e'
6.94,'d','e'
7.78,'d','e'
7.84,'d','e'
6.08,'d','e'
7.13,'d','e'
7.34,'d','e'
7.09,'d','e'
8.76,'d','e'
7.48,'d','e'
8.15,'d','e'
7.88,'d','e'
7.78,'d','e'
6.62,'d','e'
7.71,'d','e'
6.87,'d','e'
7.69,'d','e'
6.83,'d','e'
6.67,'d','e'
7.84,'d','e'
7.01,'d','e'
8.84,'d','e'
5.21,'d','e'
7.26,'d','e'
6.17,'d','e'
6.57,'d','e'
7.96,'d','e'
8.89,'d','e'
6.44,'d','e'
7.65,'d','e'
6.9,'d','e'
7.64,'d','e'
6.73,'d','e'
8.43,'d','e'
8.26,'d','e'
6.57,'d','e'
7.3,'d','e'
9.27,'d','e'
7.29,'d','e'
6.63,'d','e'
7.55,'d','e'
7.9,'d','e'
8.19,'d','e'
7.71,'d','e'
8.88,'d','e'
8.32,'d','e'
6.77,'d','e'
7.32,'d','e'
6.1,'d','e'
6.36,'d','e'
8.35,'d','e'
9.57,'d','e'
7.35,'d','e'
7.1,'d','e'
8.06,'d','e'
7.53,'d','e'
6.81,'d','e'
8.87,'d','e'
6.66,'d','e'
7.46,'d','e'
6.58,'d','e'
7.31,'d','e'
8.91,'d','e'
7.55,'d','e'
8.53,'d','e'
8.84,'d','e'
7.83,'d','e'
9.27,'d','e'
6.66,'d','e'
9.88,'d','e'
9.54,'d','e'
10.15,'d','e'
6.76,'d','e'
7.83,'d','e'
6.22,'d','e'
6.08,'d','e'
7.22,'d','e'
7.93,'d','e'
8.89,'d','e'
7.26,'d','e'
7.33,'d','e'
4.68,'d','e'
8.72,'d','e'
7.59,'d','e'
7.09,'d','e'
8.57,'d','e'
8.42,'d','e'
7.12,'d','e'
6.18,'d','e'
10.33,'d','e'
6.65,'d','e'
7.83,'d','e'
9.33,'d','e'
7.85,'d','e'
7.92,'d','e'
9.2,'d','e'
9.31,'d','e'
6.77,'d','e'
6.71,'d','e'
8.98,'d','e'
6.61,'d','e'
11.02,'d','e'
6.68,'d','e'
9.17,'d','e'
9.45,'d','e'
9.94,'d','e'
10.08,'d','e'
7.55,'d','e'
7.17,'d','e'
7.36,'d','e'
8.3,'d','e'
6.08,'d','e'
5.2,'d','e'
7.25,'d','e'
5.4,'d','e'
8.35,'d','e'
8.84,'d','e'
9.19,'d','e'
8.86,'d','e'
8.33,'d','e'
7.81,'d','e'
8.12,'d','e'
8.9,'d','e'
8.43,'d','e'
6.86,'d','e'
5.79,'d','e'
8.35,'d','e'
10.83,'d','e'
9.62,'d','e'
10.74,'d','e'
8.17,'d','e'
9.86,'d','e'
9.06,'d','e'
7.36,'d','e'
5.87,'d','e'
10.65,'d','e'
5.17,'d','e'
7.53,'d','e'
8.4,'d','e'
6.62,'d','e'
8.78,'d','e'
6.34,'d','e'
5.34,'d','e'
7.47,'d','e'
5.62,'d','e'
5.91,'d','e'
6.43,'d','e'
8.17,'d','e'
8.5,'d','e'
7.04,'d','e'
6.83,'d','e'
7.7,'d','e'
9.12,'d','e'
8.7,'d','e'
9.8,'d','e'
6.9,'d','e'
6.95,'d','e'
10.69,'d','e'
6.73,'d','e'
7.09,'d','e'
8.22,'d','e'
8.62,'d','e'
9.05,'d','e'
9.02,'d','e'
8.3,'d','e'
6.61,'d','e'
9.3,'d','e'
6.96,'d','e'
8.91,'d','e'
8.24,'d','e'
9.27,'d','e'
9.07,'d','e'
8.72,'d','e'
7.68,'d','e'
8.45,'d','e'
8.67,'d','e'
7.77,'d','e'
9.16,'d','e'
6.27,'d','e'
9.72,'d','e'
7.86,'d','e'
6.84,'d','e'
8.6,'d','e'
8.6,'d','e'
9.07,'d','e'
5.5,'d','e'
6.38,'d','e'
7.61,'d','e'
5.85,'d','e'
6.81,'d','e'
8.16,'d','e'
8.57,'d','e'
5.13,'d','e'
8.75,'d','e'
7.6,'d','e'
8.65,'d','e'
7.51,'d','e'
8.06,'d','e'
3.68,'d','e'
6.34,'d','e'
4.82,'d','e'
6.58,'d','e'
9.03,'d','e'
9.61,'d','e'
8.39,'d','e'
6.83,'d','e'
6.85,'d','e'
5.2,'d','e'
7.86,'d','e'
9.36,'d','e'
7.51,'d','e'
9.31,'d','e'
7.09,'d','e'
10.29,'d','e'
6.5,'d','e'
8.21,'d','e'
6.74,'d','e'
6.67,'d','e'
9.69,'d','e'
9.06,'d','e'
8.91,'d','e'
9.58,'d','e'
8.32,'d','e'
7.37,'d','e'
7.45,'d','e'
8.53,'d','e'
10.77,'d','e'
7.1,'d','e'
8.18,'d','e'
5.85,'d','e'
9.86,'d','e'
7.21,'d','e'
7.96,'d','e'
7.39,'d','e'
10.14,'d','e'
8.33,'d','e'
5.47,'d','e'
8.65,'d','e'
8.46,'d','e'
8.13,'d','e'
10.8,'d','e'
8.07,'d','e'
8.41,'d','e'
9.19,'d','e'
10.8,'d','e'
8.09,'d','e'
7.37,'d','e'
8.05,'d','e'
6.92,'d','e'
6.63,'d','e'
6.64,'d','e'
7.09,'d','e'
8.56,'d','e'
6.64,'d','e'
9.98,'d','e'
7.6,'d','e'
8.88,'d','e'
7.65,'d','e'
9.62,'d','e'
6.12,'d','e'
9.56,'d','e'
7.1,'d','e'
7.42,'d','e'
6.91,'d','e'
8.04,'d','e'
10.62,'d','e'
7.61,'d','e'
8.47,'d','e'
8.43,'d','e'
8.44,'d','e'
7.88,'d','e'
8,'d','e'
7.78,'d','e'
6.71,'d','e'
5.87,'d','e'
8.1,'d','e'
7.44,'d','e'
7.53,'d','e'
10.08,'d','e'
9.88,'d','e'
7.19,'d','e'
7.2,'d','e'
9.22,'d','e'
8.08,'d','e'
8.43,'d','e'
6.6,'d','e'
10.18,'d','e'
9.31,'d','e'
8.61,'d','e'
7.92,'d','e'
8.72,'d','e'
8.05,'d','e'
9.11,'d','e'
7.13,'d','e'
6.03,'d','e'
7.1,'d','e'
8.61,'d','e'
2.9,'d','e'
5.26,'d','e'
8.08,'d','e'
7.54,'d','e'
6.69,'d','e'
5.26,'d','e'
9.13,'d','e'
7.59,'d','e'
6.68,'d','e'
9.67,'d','e'
9.27,'d','e'
8.38,'d','e'
7.72,'d','e'
6.06,'d','e'
9.02,'d','e'
8.04,'d','e'
9.3,'d','e'
6.58,'d','e'
8.13,'d','e'
8.9,'d','e'
9.88,'d','e'
7.36,'d','e'
7.81,'d','e'
8.9,'d','e'
6.34,'d','e'
9.06,'d','e'
6.7,'d','e'
9.26,'d','e'
9.41,'d','e'
9.32,'d','e'
5.37,'d','e'
6,'d','e'
7.26,'d','e'
7.19,'d','e'
7.1,'d','e'
8.49,'d','e'
8.39,'d','e'
7.66,'d','e'
8.14,'d','e'
9.95,'d','e'
7.39,'d','e'
9.76,'d','e'
6.05,'d','e'
6.17,'d','e'
8.21,'d','e'
9.96,'d','e'
5.9,'d','e'
7.69,'d','e'
7.42,'d','e'
7.33,'d','e'
8.27,'d','e'
9.83,'d','e'
8.16,'d','e'
8.93,'d','e'
10.13,'d','e'
8.2,'d','e'
8.26,'d','e'
6.88,'d','e'
8.63,'d','e'
6.5,'d','e'
7.5,'d','e'
5.94,'d','e'
9,'d','e'
6.1,'d','e'
6.63,'d','e'
7.54,'d','e'
9.19,'d','e'
7.91,'d','e'
5.17,'d','e'
7.91,'d','e'
9.43,'d','e'
5.65,'d','e'
8.75,'d','e'
9.21,'d','e'
8.84,'d','e'
4.82,'d','e'
10.27,'d','e'
10.29,'d','e'
8.72,'d','e'
7.41,'d','e'
7.87,'d','e'
8.31,'d','e'
8.84,'d','e'
3.57,'d','e'
7.14,'d','e'
6.68,'d','e'
9.73,'d','e'
7.15,'d','e'
8.05,'d','e'
8.1,'d','e'
6.57,'d','e'
8.32,'d','e'
8.04,'d','e'
7.16,'d','e'
9.96,'d','e'
6.41,'d','e'
7.19,'d','e'
6.95,'d','e'
8.94,'d','e'
8.86,'d','e'
6.97,'d','e'
6.54,'d','e'
8.74,'d','e'
7.03,'d','e'
8.31,'d','e'
7.95,'d','e'
8.31,'d','e'
8.68,'d','e'
8.34,'d','e'
8.69,'d','e'
9.8,'d','e'
8.17,'d','e'
8.69,'d','e'
9.6,'d','e'
10.12,'d','e'
8.11,'d','e'
9.03,'d','e'
9.27,'d','e'
8.29,'d','e'
9.88,'d','e'
10.48,'d','e'
10.48,'d','e'
9.58,'d','e'
7.06,'d','e'
11.55,'d','e'
10.17,'d','e'
8.09,'d','e'
9.85,'d','e'
11.77,'d','e'
8.62,'d','e'
8.25,'d','e'
10.11,'d','e'
9.75,'d','e'
7.23,'d','e'
10.06,'d','e'
9.09,'d','e'
9.64,'d','e'
8.55,'d','e'
10.56,'d','e'
8.8,'d','e'
9.34,'d','e'
8.32,'d','e'
7.65,'d','e'
8.56,'d','e'
9.52,'d','e'
10.39,'d','e'
10.05,'d','e'
8.91,'d','e'
6.83,'d','e'
8.76,'d','e'
8.39,'d','e'
9.98,'d','e'
11.09,'d','e'
7.63,'d','e'
9.39,'d','e'
9.44,'d','e'
8.78,'d','e'
9.63,'d','e'
9.36,'d','e'
8.24,'d','e'
9.49,'d','e'
10.08,'d','e'
8.5,'d','e'
9.4,'d','e'
8.54,'d','e'
8.52,'d','e'
9.65,'d','e'
8.53,'d','e'
9.32,'d','e'
8.38,'d','e'
9.4,'d','e'
8.05,'d','e'
9.35,'d','e'
9.61,'d','e'
7.93,'d','e'
8.43,'d','e'
8.37,'d','e'
9.52,'d','e'
9.41,'d','e'
7.74,'d','e'
8.61,'d','e'
9.88,'d','e'
9.87,'d','e'
9.18,'d','e'
7.61,'d','e'
8.54,'d','e'
9.03,'d','e'
9.73,'d','e'
10.29,'d','e'
8.4,'d','e'
9.27,'d','e'
9.65,'d','e'
8.34,'d','e'
11.59,'d','e'
9.11,'d','e'
8.21,'d','e'
7.8,'d','e'
9,'d','e'
8.96,'d','e'
9.94,'d','e'
7.66,'d','e'
8.48,'d','e'
8.26,'d','e'
10.67,'d','e'
9.36,'d','e'
9.06,'d','e'
9.41,'d','e'
9.83,'d','e'
8.96,'d','e'
9.59,'d','e'
8.69,'d','e'
8.76,'d','e'
8.01,'d','e'
9.69,'d','e'
7.74,'d','e'
9.45,'d','e'
8.71,'d','e'
10.06,'d','e'
10.41,'d','e'
6.92,'d','e'
8.73,'d','e'
6.63,'d','e'
10.38,'d','e'
9.26,'d','e'
9.18,'d','e'
8,'d','e'
9.56,'d','e'
8.93,'d','e'
9.76,'d','e'
7.64,'d','e'
9.85,'d','e'
11.27,'d','e'
9.85,'d','e'
6.73,'d','e'
7.7,'d','e'
8.71,'d','e'
9.63,'d','e'
8.36,'d','e'
10.35,'d','e'
8.74,'d','e'
10.53,'d','e'
9.1,'d','e'
8.08,'d','e'
9.12,'d','e'
9.76,'d','e'
9.6,'d','e'
10.07,'d','e'
9.37,'d','e'
7.67,'d','e'
8.37,'d','e'
8.88,'d','e'
9.72,'d','e'
8.3,'d','e'
9.68,'d','e'
9.34,'d','e'
6.81,'d','e'
9.6,'d','e'
9.7,'d','e'
9.54,'d','e'
7.92,'d','e'
9.92,'d','e'
8.63,'d','e'
8.69,'d','e'
10.67,'d','e'
8.61,'d','e'
8.02,'d','e'
10.03,'d','e'
9.77,'d','e'
8.92,'d','e'
10.62,'d','e'
6,'d','e'
9.38,'d','e'
7.72,'d','e'
7.34,'d','e'
9.94,'d','e'
8.11,'d','e'
10.11,'d','e'
11.05,'d','e'
9.68,'d','e'
8.07,'d','e'
8.04,'d','e'
10.17,'d','e'
9.41,'d','e'
8.43,'d','e'
9.32,'d','e'
7.9,'d','e'
9.16,'d','e'
9.66,'d','e'
10.18,'d','e'
9.5,'d','e'
9.27,'d','e'
8.17,'d','e'
10.26,'d','e'
9.32,'d','e'
9.86,'d','e'
9,'d','e'
9.43,'d','e'
10.15,'d','e'
8.77,'d','e'
9.66,'d','e'
6.96,'d','e'
8.56,'d','e'
9.51,'d','e'
7.97,'d','e'
8.43,'d','e'
9.4,'d','e'
9.57,'d','e'
7.3,'d','e'
10.12,'d','e'
9.28,'d','e'
9.73,'d','e'
8.7,'d','e'
10.17,'d','e'
10.56,'d','e'
7.31,'d','e'
10.61,'d','e'
11.12,'d','e'
9.5,'d','e'
9.3,'d','e'
9.39,'d','e'
8.84,'d','e'
9.2,'d','e'
8.8,'d','e'
8.94,'d','e'
7.5,'d','e'
9.58,'d','e'
6.99,'d','e'
9.79,'d','e'
10.45,'d','e'
10.17,'d','e'
10.36,'d','e'
9.66,'d','e'
8.29,'d','e'
9.06,'d','e'
8.58,'d','e'
7.93,'d','e'
8.23,'d','e'
8.4,'d','e'
8.41,'d','e'
8.16,'d','e'
8.91,'d','e'
8.79,'d','e'
10.44,'d','e'
8.74,'d','e'
10.53,'d','e'
10.84,'d','e'
10.79,'d','e'
9.4,'d','e'
8.83,'d','e'
8.54,'d','e'
8.17,'d','e'
11.02,'d','e'
7.95,'d','e'
8.73,'d','e'
8.55,'d','e'
10.41,'d','e'
8.76,'d','e'
8.66,'d','e'
9.63,'d','e'
9.55,'d','e'
9.11,'d','e'
7.54,'d','e'
9.64,'d','e'
10.2,'d','e'
7.82,'d','e'
9.31,'d','e'
10.83,'d','e'
9.28,'d','e'
10.22,'d','e'
9.09,'d','e'
9.41,'d','e'
9.44,'d','e'
9.14,'d','e'
8.97,'d','e'
8.03,'d','e'
9.39,'d','e'
9.59,'d','e'
9.88,'d','e'
9.06,'d','e'
8.49,'d','e'
8.32,'d','e'
9.99,'d','e'
8.83,'d','e'
8.84,'d','e'
7.17,'d','e'
9.73,'d','e'
7.22,'d','e'
6.96,'d','e'
8.1,'d','e'
9.58,'d','e'
8.49,'d','e'
8.92,'d','e'
9.9,'d','e'
8.79,'d','e'
7.96,'d','e'
10.2,'d','e'
9.1,'d','e'
9.02,'d','e'
9.1,'d','e'
9.7,'d','e'
10.32,'d','e'
9.01,'d','e'
8.18,'d','e'
10.82,'d','e'
9.29,'d','e'
8.63,'d','e'
8.07,'d','e'
8.91,'d','e'
7.81,'d','e'
8.74,'d','e'
9.56,'d','e'
7.85,'d','e'
8.32,'d','e'
8.86,'d','e'
8.61,'d','e'
10.19,'d','e'
10.09,'d','e'
9.55,'d','e'
9.51,'d','e'
9.76,'d','e'
8.1,'d','e'
8.43,'d','e'
8.14,'d','e'
8.47,'d','e'
8.57,'d','e'
10.55,'d','e'
12.19,'d','e'
9.27,'d','e'
9.84,'d','e'
7.66,'d','e'
7.8,'d','e'
9.21,'d','e'
8.78,'d','e'
9.99,'d','e'
9.93,'d','e'
11.53,'d','e'
9.85,'d','e'
7.34,'d','e'
9.55,'d','e'
7.54,'d','e'
10.85,'d','e'
9.23,'d','e'
8.56,'d','e'
9.86,'d','e'
8.51,'d','e'
10.61,'d','e'
9.82,'d','e'
9.31,'d','e'
8.69,'d','e'
9.68,'d','e'
9.47,'d','e'
7.81,'d','e'
8.92,'d','e'
7.75,'d','e'
9.41,'d','e'
8.36,'d','e'
7.47,'d','e'
9.46,'g','e'
9.63,'h','e'
8.1,'g','e'
8.86,'g','e'
9.86,'g','e'
5.96,'h','e'
8.95,'g','e'
9.16,'h','e'
7.88,'d','e'
9.9,'d','e'
8.96,'h','e'
7.09,'g','e'
8.25,'d','e'
7.84,'g','e'
7.79,'g','e'
7.82,'d','e'
8.54,'d','e'
6.12,'h','e'
7.58,'h','e'
7.3,'g','e'
7.57,'h','e'
7.17,'h','e'
8.6,'g','e'
8.95,'h','e'
7.16,'g','e'
8.62,'g','e'
7.83,'g','e'
9.5,'g','e'
7.9,'d','e'
8.66,'h','e'
6.8,'h','e'
6.18,'d','e'
6.65,'h','e'
8.5,'h','e'
8.6,'g','e'
7.61,'d','e'
5.7,'h','e'
7.98,'h','e'
8.98,'d','e'
5.96,'d','e'
7.43,'d','e'
6.76,'d','e'
6.73,'h','e'
8.68,'g','e'
8.32,'g','e'
7.81,'h','e'
8.59,'d','e'
7.98,'g','e'
8.43,'g','e'
6.43,'h','e'
8.84,'d','e'
10.81,'d','e'
5.29,'h','e'
5.21,'d','e'
9.88,'g','e'
7.83,'d','e'
5.8,'g','e'
6.3,'h','e'
7.77,'d','e'
6.84,'g','e'
7.61,'g','e'
6.25,'g','e'
6.85,'h','e'
7.24,'h','e'
6.74,'h','e'
8.37,'g','e'
8.27,'g','e'
10.15,'g','e'
7.37,'h','e'
9.05,'h','e'
8.26,'h','e'
6.56,'g','e'
8.57,'h','e'
8.53,'h','e'
8.75,'h','e'
8.99,'d','e'
9.14,'d','e'
8.27,'h','e'
7.36,'g','e'
8.05,'h','e'
9.17,'h','e'
5.07,'g','e'
8.17,'h','e'
7.16,'d','e'
8.41,'h','e'
8.9,'g','e'
5.53,'d','e'
7.83,'h','e'
6.94,'g','e'
9.28,'h','e'
7.85,'g','e'
7.28,'g','e'
9.11,'h','e'
8.06,'h','e'
8.77,'h','e'
7.9,'h','e'
6.18,'h','e'
9.23,'g','e'
8.48,'g','e'
8.64,'d','e'
8.23,'g','e'
8.36,'h','e'
7.98,'g','e'
10.59,'d','e'
4.48,'g','e'
9.35,'g','e'
10.11,'h','e'
6.68,'g','e'
8.24,'h','e'
8.32,'d','e'
7.21,'d','e'
6.54,'h','e'
7.31,'g','e'
9.86,'d','e'
8.39,'d','e'
8.89,'d','e'
7.49,'h','e'
7.95,'d','e'
9.19,'d','e'
7.03,'d','e'
9.78,'d','e'
6.71,'g','e'
7.57,'h','e'
7.89,'g','e'
6.24,'g','e'
9.46,'h','e'
8.46,'g','e'
8.22,'g','e'
7.41,'d','e'
7.31,'d','e'
8.34,'h','e'
7.5,'h','e'
7.27,'d','e'
8.7,'g','e'
7.64,'g','e'
7.44,'g','e'
9.74,'g','e'
10.16,'g','e'
6.56,'g','e'
6.58,'g','e'
8.16,'h','e'
8.51,'g','e'
8.78,'h','e'
4.74,'h','e'
6.31,'d','e'
8.21,'d','e'
9.65,'d','e'
9.14,'h','e'
9.5,'h','e'
4.77,'g','e'
8.82,'h','e'
7.04,'d','e'
6.93,'g','e'
6.98,'d','e'
8.27,'h','e'
6.32,'g','e'
9.18,'g','e'
9.02,'d','e'
6.81,'d','e'
9.14,'d','e'
9.33,'g','e'
8.88,'h','e'
7.79,'g','e'
6.11,'g','e'
5.92,'h','e'
7.02,'d','e'
7.83,'h','e'
8.66,'g','e'
4.92,'d','e'
7.37,'g','e'
6.1,'h','e'
9.52,'d','e'
10.26,'g','e'
8.14,'d','e'
7.88,'g','e'
6.57,'d','e'
10.64,'h','e'
7.77,'g','e'
8.12,'h','e'
7.44,'d','e'
7.25,'h','e'
7.37,'d','e'
7.38,'g','e'
7.75,'g','e'
4.92,'h','e'
8.31,'g','e'
7.73,'h','e'
7.73,'d','e'
9.35,'h','e'
9.53,'g','e'
7.35,'h','e'
8.98,'g','e'
8.98,'d','e'
8.18,'h','e'
6.4,'d','e'
7.84,'g','e'
9.55,'h','e'
6.69,'h','e'
7.75,'h','e'
7.26,'g','e'
9.72,'g','e'
8.69,'h','e'
7.31,'g','e'
8.55,'d','e'
8.64,'h','e'
9.94,'d','e'
7.1,'g','e'
8.61,'d','e'
7.94,'g','e'
4.97,'h','e'
9.35,'h','e'
8.99,'h','e'
6.74,'d','e'
5.72,'g','e'
6.51,'h','e'
7.44,'g','e'
7.99,'h','e'
7.34,'h','e'
6.96,'g','e'
9.68,'d','e'
6.91,'g','e'
7.1,'h','e'
8.29,'g','e'
8.39,'d','e'
7.98,'d','e'
7.34,'g','e'
5.26,'d','e'
7.79,'g','e'
7.97,'g','e'
8.1,'h','e'
8.21,'d','e'
9.27,'g','e'
5.86,'d','e'
9.81,'g','e'
6.59,'h','e'
8.74,'h','e'
10.22,'g','e'
8.5,'d','e'
7.9,'d','e'
6.99,'d','e'
6.54,'h','e'
5.34,'d','e'
8.86,'g','e'
7.95,'d','e'
6.06,'d','e'
9.06,'h','e'
8.01,'d','e'
7.66,'d','e'
8.59,'h','e'
8.01,'g','e'
9.58,'g','e'
5.84,'h','e'
7.27,'d','e'
8.76,'g','e'
4.29,'d','e'
9.92,'g','e'
7.6,'d','e'
5.98,'g','e'
8.46,'h','e'
7.23,'g','e'
8.39,'h','e'
9.1,'h','e'
8.3,'g','e'
9.35,'d','e'
7.81,'d','e'
7.77,'d','e'
10.58,'d','e'
8.04,'g','e'
7.63,'d','e'
8.68,'d','e'
7.01,'d','e'
7.58,'g','e'
7.73,'g','e'
6.36,'g','e'
7.67,'g','e'
8.03,'g','e'
6.87,'d','e'
9.19,'h','e'
7.87,'g','e'
6.29,'g','e'
8.47,'h','e'
7.29,'h','e'
9.24,'h','e'
6.94,'g','e'
9.32,'g','e'
9.86,'g','e'
7.77,'g','e'
6.4,'h','e'
6.52,'h','e'
8.11,'g','e'
7.22,'g','e'
6.99,'g','e'
10.32,'g','e'
6.44,'g','e'
6.46,'h','e'
11.18,'d','e'
8.04,'d','e'
6.66,'d','e'
5.12,'d','e'
9.64,'g','e'
8.32,'h','e'
5.4,'g','e'
7.29,'d','e'
7.25,'h','e'
7.07,'d','e'
9.02,'d','e'
9.2,'d','e'
8.14,'h','e'
5.37,'g','e'
10.1,'g','e'
9.41,'h','e'
6.42,'h','e'
8.55,'h','e'
9.26,'h','e'
8.19,'h','e'
10.18,'d','e'
6.89,'g','e'
7.64,'h','e'
6.98,'g','e'
8.79,'h','e'
8.67,'h','e'
8.43,'h','e'
6.9,'g','e'
8.06,'g','e'
5.88,'g','e'
8.61,'h','e'
8.18,'h','e'
8.16,'d','e'
8.85,'d','e'
7.12,'h','e'
8.6,'h','e'
6.38,'g','e'
6.95,'d','e'
7.57,'g','e'
8.72,'g','e'
6.74,'h','e'
8.22,'h','e'
3.46,'g','e'
8.74,'h','e'
7.51,'g','e'
9.69,'d','e'
8.37,'d','e'
7.86,'g','e'
9.89,'h','e'
8.37,'g','e'
7.79,'h','e'
8.78,'h','e'
8.95,'h','e'
6.15,'g','e'
10.34,'d','e'
7.53,'h','e'
8.44,'h','e'
9.63,'d','e'
12.68,'d','p'
11.18,'h','p'
9.44,'h','p'
10.27,'h','p'
7.17,'h','p'
12.89,'h','p'
10.16,'d','p'
10.75,'d','p'
12.98,'h','p'
11.99,'d','p'
14.11,'d','p'
10.66,'d','p'
11.27,'h','p'
10.43,'d','p'
11.63,'h','p'
11.47,'d','p'
12.77,'h','p'
12.58,'d','p'
11.25,'d','p'
11.87,'h','p'
10.72,'h','p'
10.23,'d','p'
10.11,'h','p'
10.14,'d','p'
9.06,'d','p'
10.21,'d','p'
11.15,'d','p'
12.01,'h','p'
10.04,'d','p'
10.67,'h','p'
10.53,'d','p'
12.14,'d','p'
12.83,'h','p'
8.75,'d','p'
12.24,'d','p'
11.36,'d','p'
9.3,'d','p'
7.83,'h','p'
11.11,'d','p'
8.82,'d','p'
12.67,'d','p'
12.3,'h','p'
9.73,'d','p'
13.3,'h','p'
9.03,'d','p'
9.71,'d','p'
9.58,'h','p'
13.98,'d','p'
13.21,'h','p'
11.14,'h','p'
11.97,'d','p'
9.97,'d','p'
11.37,'d','p'
10.79,'h','p'
12.61,'h','p'
10.61,'d','p'
14.94,'d','p'
11.48,'d','p'
10.07,'d','p'
12.3,'d','p'
9.39,'h','p'
10.43,'d','p'
8.84,'d','p'
12.07,'d','p'
10.69,'d','p'
11.18,'d','p'
12.45,'h','p'
12.25,'d','p'
10.66,'h','p'
10.29,'h','p'
11.07,'h','p'
11.58,'d','p'
13.45,'d','p'
11.24,'d','p'
11.97,'d','p'
12.12,'h','p'
9.92,'h','p'
11.16,'h','p'
10.8,'h','p'
12.91,'d','p'
11.69,'h','p'
10.64,'h','p'
9.57,'h','p'
11.76,'d','p'
11.24,'h','p'
12.2,'d','p'
12.18,'d','p'
11.04,'h','p'
11.53,'d','p'
13.37,'d','p'
9.84,'h','p'
12.78,'h','p'
10.92,'h','p'
11.79,'d','p'
14.29,'d','p'
13.26,'h','p'
10.61,'h','p'
10.39,'h','p'
11.23,'h','p'
9.94,'d','p'
9.62,'d','p'
11.05,'d','p'
12.16,'d','p'
11.13,'d','p'
10.97,'h','p'
13.77,'d','p'
11.66,'h','p'
12.35,'h','p'
11.79,'d','p'
10.27,'h','p'
11.6,'h','p'
9.25,'h','p'
13.46,'h','p'
10.86,'d','p'
12.61,'h','p'
11.58,'d','p'
10.82,'d','p'
11.95,'h','p'
10.12,'h','p'
11.51,'h','p'
10.59,'d','p'
9.3,'h','p'
8.4,'d','p'
10.97,'h','p'
9.95,'h','p'
10.45,'d','p'
9.04,'d','p'
10.98,'d','p'
9.63,'d','p'
10.02,'h','p'
12.47,'d','p'
8.74,'d','p'
11.8,'d','p'
10.42,'d','p'
10.74,'d','p'
10.44,'d','p'
12.05,'h','p'
11.72,'d','p'
10.03,'h','p'
12.36,'h','p'
12.97,'d','p'
11.78,'h','p'
10.16,'h','p'
11.37,'d','p'
13.23,'h','p'
10.17,'d','p'
13.4,'h','p'
11.16,'d','p'
10.89,'d','p'
9.69,'h','p'
12.07,'h','p'
10.34,'d','p'
10.82,'d','p'
12.7,'h','p'
11.37,'h','p'
13.01,'d','p'
10.34,'h','p'
11.15,'h','p'
9.55,'d','p'
10.28,'d','p'
8.38,'d','p'
10.71,'h','p'
10.39,'d','p'
12.08,'h','p'
9.37,'h','p'
13.18,'h','p'
12.95,'d','p'
10.8,'h','p'
8.76,'d','p'
9.99,'h','p'
11.7,'h','p'
10.7,'h','p'
12.11,'h','p'
12.59,'h','p'
13.09,'h','p'
10.42,'h','p'
10.9,'h','p'
12.99,'h','p'
10.29,'h','p'
10.27,'d','p'
10.89,'h','p'
12.83,'h','p'
10.11,'d','p'
9,'d','p'
12.29,'h','p'
9.76,'d','p'
11.33,'h','p'
8.58,'d','p'
13.64,'h','p'
12.44,'h','p'
9.75,'h','p'
9.66,'h','p'
10.23,'d','p'
13.31,'h','p'
10.34,'h','p'
11.61,'d','p'
10.04,'d','p'
13.15,'h','p'
13.46,'h','p'
11,'d','p'
9.03,'h','p'
11.18,'d','p'
9.58,'d','p'
11.92,'d','p'
9.92,'d','p'
10.64,'d','p'
11.25,'d','p'
12.88,'d','p'
8.6,'d','p'
13.36,'h','p'
11.78,'d','p'
10.56,'h','p'
11.6,'h','p'
10.93,'h','p'
11.08,'h','p'
11.64,'d','p'
10.5,'d','p'
11.14,'h','p'
9.33,'h','p'
12.21,'d','p'
12.79,'d','p'
10.05,'h','p'
9.65,'d','p'
11.79,'d','p'
11.45,'h','p'
9.15,'h','p'
10.44,'d','p'
9.24,'d','p'
11.12,'d','p'
11.44,'h','p'
7.98,'d','p'
12.37,'h','p'
11.38,'d','p'
8.43,'h','p'
12.87,'d','p'
11.28,'h','p'
11.2,'h','p'
14.16,'h','p'
8.58,'d','p'
11.34,'h','p'
11.21,'h','p'
11.41,'h','p'
9.94,'h','p'
8.81,'d','p'
11.9,'d','p'
10.57,'d','p'
9.24,'h','p'
11.48,'d','p'
12.86,'d','p'
10.47,'d','p'
12.26,'h','p'
12.46,'d','p'
9.68,'h','p'
12.95,'d','p'
13.53,'d','p'
10.88,'h','p'
10.47,'d','p'
13.38,'h','p'
10.94,'d','p'
12.33,'d','p'
12.57,'d','p'
10.72,'d','p'
11.6,'h','p'
10.39,'h','p'
8.59,'h','p'
9.4,'d','p'
9.17,'d','p'
11,'h','p'
13.61,'d','p'
11.42,'d','p'
11.4,'d','p'
12,'h','p'
10.07,'d','p'
11.21,'d','p'
10.46,'d','p'
10.44,'d','p'
9.35,'h','p'
9.54,'d','p'
10.19,'d','p'
11.12,'h','p'
9.24,'d','p'
6.7,'h','p'
6.43,'h','p'
11.68,'h','p'
11.49,'h','p'
10.69,'h','p'
9.12,'d','p'
12.26,'h','p'
10.91,'d','p'
11.84,'h','p'
12.02,'d','p'
12.65,'h','p'
11.61,'h','p'
12.77,'d','p'
9.39,'d','p'
11.03,'h','p'
8.74,'d','p'
10.41,'h','p'
10.67,'d','p'
11.16,'d','p'
10.19,'d','p'
8.53,'d','p'
10.7,'d','p'
10,'h','p'
13.12,'d','p'
12.81,'h','p'
12.63,'d','p'
11.11,'d','p'
12.28,'d','p'
8.48,'d','p'
10.39,'d','p'
9.8,'h','p'
12.45,'h','p'
12.57,'h','p'
10.94,'h','p'
13.19,'h','p'
10.83,'h','p'
12.66,'d','p'
10.67,'h','p'
10.21,'d','p'
12.43,'h','p'
9.88,'d','p'
12.47,'d','p'
12.12,'h','p'
7.95,'h','p'
11.14,'h','p'
8.29,'h','p'
11.86,'d','p'
9.92,'h','p'
11.25,'d','p'
9.81,'h','p'
13.36,'h','p'
11.76,'d','p'
10.67,'d','p'
8.83,'d','p'
12.07,'h','p'
9.75,'h','p'
10.67,'h','p'
9.99,'h','p'
14.04,'h','p'
10.76,'h','p'
11,'d','p'
12.25,'h','p'
12.32,'h','p'
12.94,'d','p'
12.5,'d','p'
11.99,'d','p'
10.67,'d','p'
8.68,'d','p'
11.68,'h','p'
8.27,'d','p'
11.51,'h','p'
8.77,'d','p'
16.26,'d','p'
16.95,'d','p'
15.21,'d','p'
14.37,'d','p'
18.74,'d','p'
16.16,'d','p'
19.47,'d','p'
15.86,'d','p'
16.82,'d','p'
13.91,'d','p'
12.77,'d','p'
13.98,'d','p'
17.42,'d','p'
14.58,'d','p'
15.82,'d','p'
18.5,'d','p'
16.66,'d','p'
22.63,'d','p'
12.71,'d','p'
16.08,'d','p'
17.85,'d','p'
10.92,'d','p'
19.45,'d','p'
11.57,'d','p'
13.86,'d','p'
20.52,'d','p'
14.35,'d','p'
24.48,'d','p'
14.44,'d','p'
15.32,'d','p'
17.9,'d','p'
15.88,'d','p'
17.35,'d','p'
17,'d','p'
15.42,'d','p'
18.11,'d','p'
17.6,'d','p'
21.79,'d','p'
17.42,'d','p'
12.73,'d','p'
11.5,'d','p'
15.58,'d','p'
15.16,'d','p'
13.99,'d','p'
17.95,'d','p'
19.33,'d','p'
14.59,'d','p'
13.27,'d','p'
14.96,'d','p'
16.27,'d','p'
13.16,'d','p'
16.2,'d','p'
24.62,'d','p'
15.21,'d','p'
13.33,'d','p'
17.3,'d','p'
17.9,'d','p'
15.52,'d','p'
12.55,'d','p'
11.95,'d','p'
12.59,'d','p'
16.27,'d','p'
16.26,'d','p'
19.19,'d','p'
16.69,'d','p'
17,'d','p'
19.97,'d','p'
12.89,'d','p'
15.71,'d','p'
14.69,'d','p'
18.74,'d','p'
16.92,'d','p'
17.6,'d','p'
18.26,'d','p'
9.43,'d','p'
9.9,'d','p'
17.31,'d','p'
20.48,'d','p'
16.53,'d','p'
15.99,'d','p'
20.61,'d','p'
10.31,'d','p'
19.82,'d','p'
20.31,'d','p'
15.74,'d','p'
21,'d','p'
16.07,'d','p'
14.15,'d','p'
18.42,'d','p'
14.6,'d','p'
18.04,'d','p'
17.61,'d','p'
13.19,'d','p'
15.63,'d','p'
13.56,'d','p'
16.24,'d','p'
15.19,'d','p'
19.95,'d','p'
16.93,'d','p'
19.58,'d','p'
19.64,'d','p'
18.46,'d','p'
17.89,'d','p'
15.64,'d','p'
14.05,'d','p'
18.19,'d','p'
14.77,'d','p'
13.54,'d','p'
19.93,'d','p'
16.1,'d','p'
18.29,'d','p'
12.64,'d','p'
14.91,'d','p'
14.2,'d','p'
16.92,'d','p'
20.53,'d','p'
17.16,'d','p'
9.01,'d','p'
13.86,'d','p'
16.63,'d','p'
19.95,'d','p'
18.07,'d','p'
16.4,'d','p'
17.84,'d','p'
17.33,'d','p'
20.47,'d','p'
13.68,'d','p'
13.93,'d','p'
20.85,'d','p'
18.75,'d','p'
18.48,'d','p'
20.98,'d','p'
13.77,'d','p'
15.73,'d','p'
17.86,'d','p'
14.91,'d','p'
18.34,'d','p'
14.98,'d','p'
17.88,'d','p'
12.31,'d','p'
14.3,'d','p'
14.55,'d','p'
19.16,'d','p'
10.95,'d','p'
15.08,'d','p'
18.74,'d','p'
14.34,'d','p'
21.23,'d','p'
11.9,'d','p'
18.39,'d','p'
16.73,'d','p'
19.92,'d','p'
18.84,'d','p'
16.67,'d','p'
17.79,'d','p'
17.77,'d','p'
16.67,'d','p'
16.19,'d','p'
12.55,'d','p'
14.16,'d','p'
13.63,'d','p'
14.84,'d','p'
21.76,'d','p'
12.99,'d','p'
14.96,'d','p'
16.84,'d','p'
15.67,'d','p'
19.46,'d','p'
17.17,'d','p'
11.57,'d','p'
16.89,'d','p'
12.47,'d','p'
14.71,'d','p'
16.98,'d','p'
15.67,'d','p'
15.23,'d','p'
7.36,'d','p'
13.7,'d','p'
14.4,'d','p'
19.98,'d','p'
16.56,'d','p'
19.55,'d','p'
18.68,'d','p'
16.99,'d','p'
19.19,'d','p'
18.7,'d','p'
14.67,'d','p'
17.69,'d','p'
13.54,'d','p'
20.66,'d','p'
11.55,'d','p'
13.47,'d','p'
18.27,'d','p'
18.18,'d','p'
16.7,'d','p'
16.86,'d','p'
15.74,'d','p'
16.44,'d','p'
15.5,'d','p'
12.62,'d','p'
16.62,'d','p'
19.08,'d','p'
19.98,'d','p'
20.1,'d','p'
15.85,'d','p'
14.94,'d','p'
17.31,'d','p'
12.88,'d','p'
14.01,'d','p'
16.53,'d','p'
15.02,'d','p'
14.3,'d','p'
23.95,'d','p'
14.32,'d','p'
21.07,'d','p'
19.69,'d','p'
18.67,'d','p'
15.98,'d','p'
12.19,'d','p'
15.65,'d','p'
16.76,'d','p'
14.14,'d','p'
16.7,'d','p'
11.89,'d','p'
15.75,'d','p'
15.91,'d','p'
17.49,'d','p'
11.6,'d','p'
18.29,'d','p'
18.94,'d','p'
19.99,'d','p'
16.8,'d','p'
13.44,'d','p'
19.52,'d','p'
21.54,'d','p'
18.89,'d','p'
10.49,'d','p'
17.39,'d','p'
15.7,'d','p'
11.9,'d','p'
17.74,'d','p'
14.86,'d','p'
18.25,'d','p'
14.71,'d','p'
18.08,'d','p'
11.83,'d','p'
16.33,'d','p'
12.78,'d','p'
15.63,'d','p'
15.47,'d','p'
17.09,'d','p'
17.84,'d','p'
19.51,'d','p'
18.74,'d','p'
23.34,'d','p'
14.47,'d','p'
16.14,'d','p'
16.12,'d','p'
16.38,'d','p'
17.27,'d','p'
12.7,'d','p'
14.19,'d','p'
17.08,'d','p'
12.41,'d','p'
18.91,'d','p'
17.44,'d','p'
15.61,'d','p'
15.57,'d','p'
16.18,'d','p'
13.86,'d','p'
19.01,'d','p'
16.85,'d','p'
16.58,'d','p'
22.19,'d','p'
14.61,'d','p'
14.65,'d','p'
12.86,'d','p'
18.22,'d','p'
17.88,'d','p'
16.71,'d','p'
16.13,'d','p'
13.27,'d','p'
15.4,'d','p'
21.44,'d','p'
17.4,'d','p'
16.22,'d','p'
20.28,'d','p'
11.94,'d','p'
15.48,'d','p'
15.98,'d','p'
14.39,'d','p'
16.01,'d','p'
15.92,'d','p'
24.75,'d','p'
14.1,'d','p'
14.65,'d','p'
17.65,'d','p'
17.47,'d','p'
20.88,'d','p'
20.26,'d','p'
13.37,'d','p'
15.35,'d','p'
11.99,'d','p'
15.63,'d','p'
19.16,'d','p'
16.79,'d','p'
17.42,'d','p'
18.95,'d','p'
13.62,'d','p'
16.62,'d','p'
14.32,'d','p'
17.31,'d','p'
13.59,'d','p'
15.73,'d','p'
15.79,'d','p'
21.54,'d','p'
14.51,'d','p'
15.32,'d','p'
13.96,'d','p'
15.41,'d','p'
15.08,'d','p'
15.5,'d','p'
13.79,'d','p'
14.77,'d','p'
19.68,'d','p'
12.26,'d','p'
14.66,'d','p'
17.87,'d','p'
12.54,'d','p'
17.98,'d','p'
14.74,'d','p'
15.62,'d','p'
15.21,'d','p'
18.23,'d','p'
18.36,'d','p'
18.26,'d','p'
19.6,'d','p'
15.59,'d','p'
20.89,'d','p'
14.95,'d','p'
15.97,'d','p'
15.68,'d','p'
16.07,'d','p'
19.74,'d','p'
15.72,'d','p'
16.5,'d','p'
15.35,'d','p'
16.39,'d','p'
12.51,'d','p'
15.66,'d','p'
18.49,'d','p'
13.98,'d','p'
19.25,'d','p'
7.46,'h','p'
5.65,'d','p'
5.33,'d','p'
5.67,'d','p'
6.25,'h','p'
5.4,'d','p'
4.49,'h','p'
5.28,'h','p'
5.65,'h','p'
5.61,'d','p'
5.35,'h','p'
5.4,'d','p'
5.29,'h','p'
6.57,'h','p'
7.32,'h','p'
5.76,'h','p'
5.04,'h','p'
4.69,'d','p'
2.89,'d','p'
6.42,'h','p'
4.92,'d','p'
4.73,'h','p'
4.99,'h','p'
4.11,'h','p'
5.83,'h','p'
5.11,'h','p'
6.48,'d','p'
5.72,'d','p'
4.71,'h','p'
3.36,'d','p'
5.54,'h','p'
4.77,'d','p'
5.2,'d','p'
5.16,'d','p'
5.48,'h','p'
6.02,'h','p'
4,'d','p'
4.92,'h','p'
6.2,'h','p'
6.07,'d','p'
7.1,'h','p'
5.92,'h','p'
5.34,'h','p'
5.69,'h','p'
5.37,'h','p'
6.66,'h','p'
5.15,'d','p'
5.29,'d','p'
5.48,'h','p'
6.28,'d','p'
5.65,'h','p'
6.06,'h','p'
5.81,'d','p'
6.43,'h','p'
6.81,'h','p'
6.2,'d','p'
5.13,'h','p'
3.62,'d','p'
4.16,'d','p'
4.59,'d','p'
6.54,'d','p'
7.02,'h','p'
6.02,'d','p'
5.41,'h','p'
6.29,'h','p'
5.94,'d','p'
5.17,'h','p'
5.72,'h','p'
5.78,'d','p'
4.89,'h','p'
5.88,'d','p'
4.66,'h','p'
5.08,'h','p'
7.28,'d','p'
5.37,'h','p'
4.86,'d','p'
4.6,'h','p'
3.63,'d','p'
5.91,'h','p'
6.12,'d','p'
6.54,'d','p'
5.09,'d','p'
5.56,'h','p'
5.11,'d','p'
5.62,'h','p'
4.43,'h','p'
7.27,'h','p'
6.27,'d','p'
5.03,'d','p'
6.3,'d','p'
6.4,'d','p'
4.2,'h','p'
3.78,'d','p'
7,'d','p'
5.37,'d','p'
5.3,'d','p'
6.05,'h','p'
4.38,'h','p'
4.52,'d','p'
5.32,'d','p'
6.5,'h','p'
6.56,'d','p'
6.73,'h','p'
4.88,'h','p'
5.07,'h','p'
5.76,'h','p'
6.65,'h','p'
4.68,'d','p'
5.07,'d','p'
5.18,'h','p'
5.49,'d','p'
5.21,'d','p'
5.03,'h','p'
5.17,'h','p'
5.38,'d','p'
4.42,'h','p'
6.24,'d','p'
6.4,'d','p'
5.85,'h','p'
6.38,'d','p'
6.76,'d','p'
6.14,'h','p'
6.29,'h','p'
6.46,'h','p'
5,'d','p'
5.86,'d','p'
4.22,'d','p'
5.37,'d','p'
4.92,'h','p'
3.73,'d','p'
7.05,'d','p'
5.04,'d','p'
6.48,'h','p'
4.67,'h','p'
6.88,'d','p'
5.09,'h','p'
6.09,'h','p'
6.12,'d','p'
5.6,'d','p'
5.09,'d','p'
4.08,'h','p'
6.12,'h','p'
4.51,'h','p'
4.86,'d','p'
4.83,'h','p'
5.94,'d','p'
6.62,'h','p'
5.32,'d','p'
4.82,'d','p'
5.73,'h','p'
6.54,'h','p'
4.98,'h','p'
5.33,'d','p'
7.16,'h','p'
5.3,'d','p'
6.37,'h','p'
7.08,'d','p'
4.74,'d','p'
4.77,'h','p'
6.02,'h','p'
4.88,'d','p'
5.83,'d','p'
5.83,'h','p'
6.52,'h','p'
6.5,'d','p'
6.03,'h','p'
5.32,'h','p'
6.57,'h','p'
4.96,'d','p'
7.32,'d','p'
6.04,'d','p'
4.31,'d','p'
5.89,'h','p'
5.92,'d','p'
5.76,'h','p'
5.53,'d','p'
5.03,'h','p'
4.37,'h','p'
5.46,'h','p'
6.95,'h','p'
6.47,'h','p'
4.96,'h','p'
5.1,'d','p'
5.55,'d','p'
6.02,'h','p'
4.99,'d','p'
7.56,'d','p'
5.95,'d','p'
4.13,'h','p'
5.19,'h','p'
5.37,'d','p'
5.03,'h','p'
4.78,'h','p'
4.56,'d','p'
6.16,'d','p'
5.45,'h','p'
4.32,'h','p'
5.04,'h','p'
6.05,'d','p'
6.15,'h','p'
5.71,'h','p'
5.42,'h','p'
6.64,'h','p'
5.58,'d','p'
6.73,'h','p'
4.77,'d','p'
4.38,'d','p'
5.34,'h','p'
5.65,'h','p'
5.74,'d','p'
4.36,'d','p'
5.88,'d','p'
5.73,'h','p'
6.44,'h','p'
6.63,'d','p'
6.41,'h','p'
6.16,'h','p'
6.55,'d','p'
5.15,'d','p'
5.52,'h','p'
4.12,'h','p'
5.49,'h','p'
5.65,'d','p'
5.46,'h','p'
4.66,'h','p'
6.79,'d','p'
5.63,'h','p'
6.31,'d','p'
4.88,'d','p'
6.19,'d','p'
5.23,'d','p'
5.16,'h','p'
5.49,'d','p'
5.74,'d','p'
5.21,'d','p'
5.34,'h','p'
7.23,'h','p'
5.39,'d','p'
3.77,'d','p'
4.99,'d','p'
5.53,'d','p'
5.53,'d','p'
4.98,'h','p'
5.09,'d','p'
4.8,'d','p'
6.12,'d','p'
6.16,'h','p'
5.32,'h','p'
4.96,'d','p'
5.79,'d','p'
6.36,'d','p'
4.63,'d','p'
5.82,'d','p'
5.65,'h','p'
7.04,'h','p'
5.96,'d','p'
4.76,'d','p'
4.25,'d','p'
4.89,'d','p'
5.93,'d','p'
6.11,'d','p'
4.51,'d','p'
5,'d','p'
4.74,'h','p'
5.85,'h','p'
6.64,'d','p'
5.88,'h','p'
6.06,'h','p'
5.28,'h','p'
5.63,'h','p'
5.28,'d','p'
5.68,'h','p'
4.79,'h','p'
5.13,'h','p'
5.74,'h','p'
4.83,'h','p'
4.82,'d','p'
7.38,'h','p'
5.47,'h','p'
4.89,'h','p'
5.08,'d','p'
6.04,'d','p'
3.92,'h','p'
5.42,'h','p'
5.01,'h','p'
6.19,'h','p'
5.79,'d','p'
4.14,'d','p'
4.76,'d','p'
6.54,'h','p'
4.9,'d','p'
5.56,'d','p'
3.91,'d','p'
4.29,'h','p'
5.33,'d','p'
5.92,'h','p'
6.31,'d','p'
7.42,'d','p'
6.7,'h','p'
6.37,'d','p'
5.34,'d','p'
3.94,'d','p'
4.76,'d','p'
5.83,'d','p'
5.17,'d','p'
6.62,'d','p'
5.05,'d','p'
5.46,'d','p'
5.79,'d','p'
4.93,'h','p'
6.27,'d','p'
4.85,'d','p'
3.8,'h','p'
5.79,'h','p'
6.19,'h','p'
5.5,'d','p'
7.05,'d','p'
5.6,'d','p'
5.32,'d','p'
5.36,'h','p'
5.09,'h','p'
5.3,'h','p'
5.68,'d','p'
5.02,'d','p'
5.92,'h','p'
5.01,'d','p'
6.89,'h','p'
5.72,'h','p'
5.87,'h','p'
5.05,'h','p'
6.23,'d','p'
5.22,'h','p'
6.08,'h','p'
5.95,'h','p'
5.52,'h','p'
5.76,'d','p'
3.45,'h','p'
6.19,'d','p'
4.19,'h','p'
5.39,'h','p'
5.04,'h','p'
4.98,'h','p'
5.81,'d','p'
5.55,'h','p'
3.57,'d','p'
6.05,'d','p'
5.43,'h','p'
5.88,'h','p'
5.13,'d','p'
4.84,'h','p'
4.95,'h','p'
5.53,'d','p'
4.7,'d','p'
6.98,'d','e'
5.08,'d','e'
4.36,'d','e'
5.17,'d','e'
5.74,'d','e'
5.45,'d','e'
7.44,'d','e'
3.93,'d','e'
7.94,'d','e'
7.74,'d','e'
4.98,'d','e'
6.56,'d','e'
7.24,'d','e'
5.35,'d','e'
4.47,'d','e'
6.99,'d','e'
4.86,'d','e'
3.44,'d','e'
8.17,'d','e'
3.92,'d','e'
7.08,'d','e'
6.72,'d','e'
6.08,'d','e'
4.25,'d','e'
7.86,'d','e'
6.51,'d','e'
6.04,'d','e'
7.25,'d','e'
5.73,'d','e'
6.34,'d','e'
7.28,'d','e'
5.27,'d','e'
5.25,'d','e'
3.12,'d','e'
8.32,'d','e'
6.1,'d','e'
6.96,'d','e'
7.8,'d','e'
4.26,'d','e'
4.42,'d','e'
5.14,'d','e'
3.69,'d','e'
3.66,'d','e'
6.23,'d','e'
7.49,'d','e'
7.53,'d','e'
7.44,'d','e'
3.7,'d','e'
4.73,'d','e'
6.25,'d','e'
8.28,'d','e'
4.18,'d','e'
5.21,'d','e'
5.78,'d','e'
6.99,'d','e'
5.65,'d','e'
5.26,'d','e'
7.4,'d','e'
7.67,'d','e'
5.24,'d','e'
5.71,'d','e'
3.93,'d','e'
6.94,'d','e'
6.53,'d','e'
5.32,'d','e'
5.85,'d','e'
8.82,'d','e'
4.46,'d','e'
6.66,'d','e'
4.87,'d','e'
6.73,'d','e'
4.98,'d','e'
5.66,'d','e'
5.36,'d','e'
6.96,'d','e'
4.94,'d','e'
6.31,'d','e'
6.18,'d','e'
4.81,'d','e'
5.91,'d','e'
3.38,'d','e'
7.25,'d','e'
7.5,'d','e'
6.72,'d','e'
7.99,'d','e'
7.14,'d','e'
5.48,'d','e'
7.22,'d','e'
5.41,'d','e'
5.62,'d','e'
5.9,'d','e'
5.28,'d','e'
6.94,'d','e'
7.35,'d','e'
4.48,'d','e'
4.56,'d','e'
8.06,'d','e'
5.09,'d','e'
7.83,'d','e'
8.28,'d','e'
2.88,'d','e'
6.03,'d','e'
5.86,'d','e'
5.52,'d','e'
2.93,'d','e'
4.33,'d','e'
6.4,'d','e'
5.63,'d','e'
5.71,'d','e'
4.69,'d','e'
6.21,'d','e'
7,'d','e'
5.55,'d','e'
6.92,'d','e'
4.82,'d','e'
5.51,'d','e'
6.59,'d','e'
7.11,'d','e'
4.77,'d','e'
5.77,'d','e'
5.3,'d','e'
4.64,'d','e'
5.29,'d','e'
4.75,'d','e'
5.22,'d','e'
6.1,'d','e'
4.48,'d','e'
5.58,'d','e'
4.05,'d','e'
4.93,'d','e'
7.4,'d','e'
6.68,'d','e'
5.23,'d','e'
6.48,'d','e'
8.53,'d','e'
7,'d','e'
6.36,'d','e'
6.94,'d','e'
6.58,'d','e'
7.11,'d','e'
4.63,'d','e'
5.77,'d','e'
5.78,'d','e'
5.96,'d','e'
5.46,'d','e'
5.07,'d','e'
5.18,'d','e'
5.15,'d','e'
6.47,'d','e'
8.18,'d','e'
5.78,'d','e'
6.13,'d','e'
6.65,'d','e'
5.23,'d','e'
7.14,'d','e'
5.07,'d','e'
6.1,'d','e'
4.9,'d','e'
5.87,'d','e'
4.57,'d','e'
7.61,'d','e'
5.83,'d','e'
5.14,'d','e'
7.66,'d','e'
6.01,'d','e'
4.85,'d','e'
5.65,'d','e'
6.79,'d','e'
6.11,'d','e'
5.77,'d','e'
5.17,'d','e'
4.69,'d','e'
5.66,'d','e'
7.52,'d','e'
5.17,'d','e'
7.44,'d','e'
6.83,'d','e'
6.41,'d','e'
4.4,'d','e'
7.21,'d','e'
6.54,'d','e'
5.5,'d','e'
9.41,'d','e'
6.42,'d','e'
4.99,'d','e'
8.54,'d','e'
4.68,'d','e'
8.05,'d','e'
6.67,'d','e'
6.14,'d','e'
5.03,'d','e'
3.41,'d','e'
4.98,'d','e'
3.51,'d','e'
8.05,'d','e'
6.35,'d','e'
7.19,'d','e'
6.25,'d','e'
4.8,'d','e'
5.77,'d','e'
6.75,'d','e'
7,'d','e'
5.1,'d','e'
4.6,'d','e'
6,'d','e'
5.78,'d','e'
7.46,'d','e'
6.19,'d','e'
6.26,'d','e'
3.97,'d','e'
6.75,'d','e'
5.84,'d','e'
4.51,'d','e'
5.03,'d','e'
5.94,'d','e'
5.55,'d','e'
5.11,'d','e'
5.91,'d','e'
7.96,'d','e'
7.71,'d','e'
7.32,'d','e'
7.76,'d','e'
6.5,'d','e'
5.56,'d','e'
8.7,'d','e'
6.38,'d','e'
5.9,'d','e'
5.17,'d','e'
6.45,'d','e'
5.09,'d','e'
5.77,'d','e'
5.94,'d','e'
5.41,'d','e'
6.57,'d','e'
5.73,'d','e'
6.65,'d','e'
7.03,'d','e'
5.17,'d','e'
4.95,'d','e'
7.71,'d','e'
3.95,'d','e'
4.33,'d','e'
6.35,'d','e'
7.02,'d','e'
5.54,'d','e'
5.05,'d','e'
7.31,'d','e'
4.2,'d','e'
7.23,'d','e'
6.33,'d','e'
9.74,'d','e'
4.12,'d','e'
6,'d','e'
4.26,'d','e'
5.33,'d','e'
7.75,'d','e'
5.94,'d','e'
7.59,'d','e'
5.7,'d','e'
6.76,'d','e'
3.87,'d','e'
5.53,'d','e'
6.15,'d','e'
7.86,'d','e'
3.08,'d','e'
4.92,'d','e'
6.34,'d','e'
7.73,'d','e'
6.79,'d','e'
7.89,'d','e'
7.21,'d','e'
5.49,'d','e'
6.97,'d','e'
6.13,'d','e'
6.67,'d','e'
5.98,'d','e'
5.21,'d','e'
5.16,'d','e'
8.13,'d','e'
6.54,'d','e'
4.57,'d','e'
7.08,'d','e'
4.19,'d','e'
7.57,'d','e'
7.5,'d','e'
5.01,'d','e'
3.77,'d','e'
5.95,'d','e'
4,'d','e'
9.04,'d','e'
8.17,'d','e'
5.29,'d','e'
4.97,'d','e'
9.12,'d','e'
6.95,'d','e'
7.64,'d','e'
7.99,'d','e'
4.33,'d','e'
6.8,'d','e'
5.76,'d','e'
7.11,'d','e'
4.68,'d','e'
5.37,'d','e'
6.14,'d','e'
7.82,'d','e'
4.52,'d','e'
5.48,'d','e'
5.4,'d','e'
6.05,'d','e'
5.63,'d','e'
5.1,'d','e'
5.53,'d','e'
6.88,'d','e'
7.43,'d','e'
6.7,'d','e'
6.18,'d','e'
9.18,'d','e'
6.73,'d','e'
5.42,'d','e'
4.63,'d','e'
6.68,'d','e'
5.06,'d','e'
6.65,'d','e'
7.82,'d','e'
5.2,'d','e'
6.69,'d','e'
4.72,'d','e'
6.14,'d','e'
5.7,'d','e'
6.12,'d','e'
6,'d','e'
5.48,'d','e'
7.14,'d','e'
3.42,'d','e'
7.27,'d','e'
6.32,'d','e'
5.43,'d','e'
5.42,'d','e'
6.24,'d','e'
5.64,'d','e'
5.49,'d','e'
6.17,'d','e'
5.37,'d','e'
6.14,'d','e'
6.15,'d','e'
2.67,'d','e'
5.45,'d','e'
4.54,'d','e'
6.52,'d','e'
4.88,'d','e'
5.09,'d','e'
7.28,'d','e'
4.17,'d','e'
3.64,'d','e'
3.73,'d','e'
3.88,'d','e'
2.76,'d','e'
3.62,'d','e'
4.47,'d','e'
3.88,'d','e'
3.25,'d','e'
3.32,'d','e'
4.1,'d','e'
4.18,'d','e'
3.41,'d','e'
3.26,'d','e'
4.11,'d','e'
3.1,'d','e'
2.95,'d','e'
3.23,'d','e'
4.28,'d','e'
3.06,'d','e'
2.88,'d','e'
3.23,'d','e'
2.89,'d','e'
4.53,'d','e'
2.96,'d','e'
3.13,'d','e'
3.32,'d','e'
3.17,'d','e'
4.46,'d','e'
3.43,'d','e'
4.1,'d','e'
3.28,'d','e'
3.2,'d','e'
3.57,'d','e'
4.2,'d','e'
3.36,'d','e'
2.97,'d','e'
4.26,'d','e'
3.45,'d','e'
3.24,'d','e'
3.13,'d','e'
4.39,'d','e'
3.46,'d','e'
3.24,'d','e'
3.23,'d','e'
3.44,'d','e'
3.83,'d','e'
2.76,'d','e'
3.79,'d','e'
2.33,'d','e'
3.7,'d','e'
3.26,'d','e'
3.58,'d','e'
3.97,'d','e'
3.85,'d','e'
3.85,'d','e'
4.05,'d','e'
3.16,'d','e'
2.75,'d','e'
3.04,'d','e'
4.2,'d','e'
3.38,'d','e'
3.05,'d','e'
2.28,'d','e'
3.61,'d','e'
3.41,'d','e'
3.52,'d','e'
3.38,'d','e'
3.99,'d','e'
3.74,'d','e'
3.55,'d','e'
4.39,'d','e'
3.37,'d','e'
3.58,'d','e'
2.17,'d','e'
3.19,'d','e'
4.04,'d','e'
3.19,'d','e'
3.49,'d','e'
3.01,'d','e'
2.33,'d','e'
3.45,'d','e'
4.21,'d','e'
3.13,'d','e'
4.34,'d','e'
2.52,'d','e'
3.41,'d','e'
3.62,'d','e'
4.22,'d','e'
3.34,'d','e'
3.27,'d','e'
4.15,'d','e'
2.98,'d','e'
3.77,'d','e'
3.89,'d','e'
3.08,'d','e'
3.18,'d','e'
3.6,'d','e'
3.58,'d','e'
3.28,'d','e'
3.47,'d','e'
3.35,'d','e'
2.97,'d','e'
3.5,'d','e'
3.04,'d','e'
4.14,'d','e'
3.94,'d','e'
2.9,'d','e'
4.15,'d','e'
3.41,'d','e'
2.53,'d','e'
3.87,'d','e'
3.12,'d','e'
2.75,'d','e'
4.07,'d','e'
3.32,'d','e'
3.43,'d','e'
3.22,'d','e'
3.29,'d','e'
3.39,'d','e'
3.84,'d','e'
3.35,'d','e'
2.84,'d','e'
3.33,'d','e'
3.82,'d','e'
4.2,'d','e'
3.65,'d','e'
3.79,'d','e'
3.14,'d','e'
3.71,'d','e'
2.66,'d','e'
3.35,'d','e'
3.27,'d','e'
3.73,'d','e'
3.57,'d','e'
3.58,'d','e'
3.5,'d','e'
2.21,'d','e'
3.6,'d','e'
3.48,'d','e'
3.52,'d','e'
4.03,'d','e'
2.68,'d','e'
3.65,'d','e'
2.65,'d','e'
2.81,'d','e'
2.88,'d','e'
2.61,'d','e'
3.63,'d','e'
3.35,'d','e'
3.46,'d','e'
4.01,'d','e'
3.34,'d','e'
3.44,'d','e'
3.15,'d','e'
3.57,'d','e'
3.11,'d','e'
3.86,'d','e'
3.3,'d','e'
3.93,'d','e'
3.18,'d','e'
2.68,'d','e'
3.53,'d','e'
3.54,'d','e'
3.89,'d','e'
4.12,'d','e'
4.27,'d','e'
3.95,'d','e'
3.02,'d','e'
3.84,'d','e'
3.71,'d','e'
2.8,'d','e'
3.73,'d','e'
3.76,'d','e'
4.01,'d','e'
3.24,'d','e'
3.43,'d','e'
3.53,'d','e'
3.51,'d','e'
3.45,'d','e'
4.11,'d','e'
2.81,'d','e'
3.86,'d','e'
3.73,'d','e'
3.6,'d','e'
3.12,'d','e'
3.31,'d','e'
3.27,'d','e'
4.12,'d','e'
3.04,'d','e'
4.11,'d','e'
3.75,'d','e'
3.51,'d','e'
3.11,'d','e'
3.06,'d','e'
4.43,'d','e'
2.22,'d','e'
4.42,'d','e'
3.58,'d','e'
2.82,'d','e'
2.87,'d','e'
3.62,'d','e'
4.48,'d','e'
3.01,'d','e'
3.54,'d','e'
2.86,'d','e'
3.42,'d','e'
4.19,'d','e'
3.59,'d','e'
3.44,'d','e'
3.4,'d','e'
4.05,'d','e'
3.16,'d','e'
4.52,'d','e'
3.56,'d','e'
3.65,'d','e'
3.34,'d','e'
3.84,'d','e'
3.43,'d','e'
2.61,'d','e'
3.77,'d','e'
3.42,'d','e'
3.11,'d','e'
3.92,'d','e'
2.23,'d','e'
4.47,'d','e'
3.4,'d','e'
3.99,'d','e'
3.56,'d','e'
3.36,'d','e'
3.02,'d','e'
2.27,'d','e'
4.02,'d','e'
3.73,'d','e'
3.54,'d','e'
3.83,'d','e'
3.23,'d','e'
3.66,'d','e'
3.78,'d','e'
4.01,'d','e'
3.55,'d','e'
2.82,'d','e'
3.18,'d','e'
4.09,'d','e'
3.69,'d','e'
3.42,'d','e'
3.41,'d','e'
3.25,'d','e'
3.74,'d','e'
3.02,'d','e'
3.98,'d','e'
4.01,'d','e'
3.6,'d','e'
3.14,'d','e'
3.09,'d','e'
2.77,'d','e'
3.93,'d','e'
2.78,'d','e'
3.49,'d','e'
4.24,'d','e'
4.43,'d','e'
3.22,'d','e'
3.56,'d','e'
3.04,'d','e'
2.65,'d','e'
2.66,'d','e'
2.98,'d','e'
2.98,'d','e'
4.03,'d','e'
3.25,'d','e'
3.37,'d','e'
3.17,'d','e'
4.15,'d','e'
4.19,'d','e'
4.01,'d','e'
3.42,'d','e'
2.94,'d','e'
3.56,'d','e'
3.81,'d','e'
3.65,'d','e'
3.91,'d','e'
3.88,'d','e'
3.35,'d','e'
3.76,'d','e'
3.96,'d','e'
3.1,'d','e'
3.86,'d','e'
3.77,'d','e'
3.35,'d','e'
3.47,'d','e'
4.24,'d','e'
3.4,'d','e'
4.12,'d','e'
3.39,'d','e'
3.39,'d','e'
4.25,'d','e'
3.54,'d','e'
3.25,'d','e'
3.86,'d','e'
4.16,'d','e'
4.02,'d','e'
3.07,'d','e'
3.56,'d','e'
3.51,'d','e'
3.24,'d','e'
3.33,'d','e'
3.82,'d','e'
3.74,'d','e'
3.24,'d','e'
3.19,'d','e'
2.99,'d','e'
3,'d','e'
3.25,'d','e'
4.4,'d','e'
3.19,'d','e'
3.63,'d','e'
3.25,'d','e'
3.03,'d','e'
3.11,'d','e'
4.4,'d','e'
2.97,'d','e'
3.27,'d','e'
3.82,'d','e'
3.29,'d','e'
3.77,'d','e'
3.36,'d','e'
4.42,'d','e'
3.66,'d','e'
3.06,'d','e'
3.74,'d','e'
3.12,'d','e'
3.4,'d','e'
3.96,'d','e'
2.81,'d','e'
3.01,'d','e'
3.25,'d','e'
4.21,'d','e'
4.07,'d','e'
3.39,'d','e'
4.62,'d','e'
4.42,'d','e'
2.73,'d','e'
3.33,'d','e'
4.02,'d','e'
2.92,'d','e'
3.38,'d','e'
4.18,'d','e'
3.08,'d','e'
4.41,'d','e'
3.18,'d','e'
3.44,'d','e'
3.49,'d','e'
3.57,'d','e'
3.53,'d','e'
5.04,'d','e'
4.9,'d','e'
4.45,'l','e'
4.23,'d','e'
5.31,'l','e'
6.59,'d','e'
6.57,'d','e'
4.12,'l','e'
5.11,'l','e'
3.5,'d','e'
5.36,'d','e'
4.28,'d','e'
3.82,'l','e'
5.08,'l','e'
4.5,'l','e'
4.84,'l','e'
2.95,'l','e'
4.47,'d','e'
6.7,'l','e'
6.98,'l','e'
5.68,'l','e'
6.42,'l','e'
3.6,'l','e'
4.18,'d','e'
5.31,'l','e'
4.33,'d','e'
5.26,'l','e'
2.61,'d','e'
5.95,'d','e'
5.22,'d','e'
5.11,'l','e'
3.62,'l','e'
4.21,'l','e'
5.14,'l','e'
5.55,'d','e'
4.01,'l','e'
4.65,'d','e'
6.45,'d','e'
6.07,'l','e'
4.9,'d','e'
5.13,'l','e'
3.93,'l','e'
4.17,'d','e'
5.11,'d','e'
4.99,'l','e'
5.33,'l','e'
5.32,'d','e'
6.33,'l','e'
4.29,'d','e'
4.17,'l','e'
5.14,'l','e'
5.19,'d','e'
6.91,'d','e'
4.58,'d','e'
5.82,'d','e'
3.91,'d','e'
6.36,'d','e'
3.54,'d','e'
4.67,'l','e'
5.48,'d','e'
4.03,'d','e'
6.47,'d','e'
5.17,'d','e'
4.66,'l','e'
4.98,'d','e'
7.74,'l','e'
3.97,'l','e'
4.66,'l','e'
5.3,'l','e'
5.27,'l','e'
4.85,'d','e'
4.58,'l','e'
4.16,'l','e'
4.42,'l','e'
4.18,'l','e'
5.03,'l','e'
4.3,'l','e'
7.92,'l','e'
6.02,'l','e'
5.4,'d','e'
4.03,'d','e'
5,'l','e'
5.85,'l','e'
4.37,'d','e'
4.79,'d','e'
5.33,'d','e'
3.16,'l','e'
4.41,'d','e'
4.96,'l','e'
5.13,'d','e'
6.51,'l','e'
3.35,'l','e'
4.54,'l','e'
3.81,'d','e'
4.42,'l','e'
4.21,'d','e'
4.23,'l','e'
3.31,'d','e'
4.7,'d','e'
5.87,'d','e'
5.26,'l','e'
5.24,'l','e'
2.51,'l','e'
5.33,'d','e'
5.34,'d','e'
6.31,'d','e'
3,'l','e'
5.29,'d','e'
5.71,'l','e'
2.54,'d','e'
5.79,'l','e'
5.72,'d','e'
4.58,'l','e'
5.49,'l','e'
4.31,'l','e'
5.53,'l','e'
3.98,'l','e'
5.39,'d','e'
6.2,'l','e'
4.27,'d','e'
5.59,'l','e'
5.51,'l','e'
5.93,'l','e'
5.35,'d','e'
3.75,'l','e'
6.02,'l','e'
6.89,'d','e'
4.96,'d','e'
4.85,'d','e'
4.52,'l','e'
5.28,'d','e'
5.13,'l','e'
4.54,'d','e'
6.42,'l','e'
4.44,'d','e'
5.81,'l','e'
4.83,'l','e'
5.55,'d','e'
4.87,'l','e'
3.53,'d','e'
5.65,'d','e'
2.65,'d','e'
5.51,'d','e'
7.82,'d','e'
4.47,'l','e'
3.1,'d','e'
5.28,'d','e'
4.06,'l','e'
3.76,'l','e'
5.67,'l','e'
5,'d','e'
3.75,'l','e'
7.25,'d','e'
3.88,'d','e'
3.32,'l','e'
4.33,'d','e'
6.18,'d','e'
4.49,'l','e'
3.6,'l','e'
4.16,'l','e'
5.44,'d','e'
5.76,'l','e'
3.99,'d','e'
5.51,'d','e'
5.68,'d','e'
3.84,'d','e'
4.47,'d','e'
8.29,'d','e'
5.19,'d','e'
4.43,'d','e'
3.13,'l','e'
4.68,'d','e'
5.58,'l','e'
5.58,'d','e'
5.38,'l','e'
4.93,'l','e'
4.17,'d','e'
7.86,'d','e'
3.29,'l','e'
6.19,'d','e'
5,'d','e'
4.55,'d','e'
5.36,'d','e'
4.58,'d','e'
5.51,'d','e'
3.14,'d','e'
4.4,'l','e'
5.85,'d','e'
5.55,'d','e'
4.17,'d','e'
6.34,'d','e'
4.41,'l','e'
5.05,'l','e'
6.45,'l','e'
3.92,'d','e'
5.33,'d','e'
4.24,'d','e'
3.63,'l','e'
4.01,'l','e'
5.78,'l','e'
5.03,'l','e'
4.18,'l','e'
5.34,'l','e'
5.03,'d','e'
4.4,'d','e'
3.76,'d','e'
5.97,'l','e'
3.68,'l','e'
3.89,'d','e'
5,'d','e'
4.44,'d','e'
5.7,'l','e'
4.9,'d','e'
6.37,'l','e'
6.1,'l','e'
6.52,'d','e'
4.37,'l','e'
6.25,'l','e'
4.99,'l','e'
2.77,'d','e'
5.46,'d','e'
6.5,'l','e'
5.98,'l','e'
4.37,'d','e'
5.65,'l','e'
5.89,'l','e'
6.15,'d','e'
5.28,'d','e'
5.21,'d','e'
5.66,'d','e'
4.15,'d','e'
6.17,'l','e'
6.98,'d','e'
5.11,'d','e'
3.28,'d','e'
7.04,'l','e'
5.21,'l','e'
5.25,'l','e'
5.25,'l','e'
5.31,'d','e'
4.27,'l','e'
5.35,'l','e'
4.06,'l','e'
4.41,'d','e'
6.07,'d','e'
5.05,'l','e'
5.26,'l','e'
4.95,'d','e'
5.96,'l','e'
5.92,'l','e'
6.49,'l','e'
4.4,'l','e'
3.64,'d','e'
5.6,'d','e'
6.03,'l','e'
5.42,'l','e'
4.01,'l','e'
5.31,'d','e'
3.84,'l','e'
3.86,'l','e'
4.96,'l','e'
4.3,'d','e'
4.6,'l','e'
4.8,'d','e'
3.44,'d','e'
4.48,'d','e'
4.5,'l','e'
5.03,'l','e'
5.8,'d','e'
3.38,'l','e'
3.11,'l','e'
5.57,'l','e'
4.71,'d','e'
2.92,'l','e'
5.06,'d','e'
5.18,'l','e'
4.83,'d','e'
5.34,'d','e'
3.01,'d','e'
5.13,'l','e'
3.31,'l','e'
5.12,'l','e'
4.53,'d','e'
4.28,'l','e'
6.82,'l','e'
4.18,'d','e'
5.36,'d','e'
6.41,'l','e'
5.03,'d','e'
4.64,'d','e'
3.7,'l','e'
5.19,'l','e'
4,'d','e'
4.03,'l','e'
4.6,'d','e'
3.69,'l','e'
6.45,'d','e'
5.34,'l','e'
5.38,'d','e'
3.13,'d','e'
5.27,'l','e'
5.07,'l','e'
4.18,'l','e'
6.68,'d','e'
4.71,'d','e'
5.51,'d','e'
5.86,'d','e'
3.76,'l','e'
4.3,'d','e'
4.99,'l','e'
3.83,'d','e'
5.82,'d','e'
4.19,'d','e'
4.85,'d','e'
5.82,'l','e'
5.55,'d','e'
5.12,'d','e'
3.39,'l','e'
5.31,'l','e'
5.47,'d','e'
4.75,'l','e'
4.1,'d','e'
6.39,'d','e'
3.77,'l','e'
3.45,'d','e'
4.53,'d','e'
3.55,'d','e'
4.51,'d','e'
6.64,'d','e'
5,'d','e'
5.23,'l','e'
4.4,'d','e'
4.9,'d','e'
5.65,'l','e'
5.17,'d','e'
4.91,'l','e'
5.78,'d','e'
6.42,'d','e'
2.86,'d','e'
4.39,'d','e'
4.46,'l','e'
4.94,'l','e'
4.26,'l','e'
4.81,'d','e'
5.32,'d','e'
4.88,'d','e'
3.38,'l','e'
5.75,'l','e'
3.75,'l','e'
4.99,'l','e'
4.12,'d','e'
4.68,'l','e'
6.82,'l','e'
9.62,'d','e'
10,'d','e'
7.62,'d','e'
9.34,'d','e'
12.27,'d','e'
8.6,'d','e'
9.7,'d','e'
11.31,'d','e'
11.41,'d','e'
12.66,'d','e'
12.64,'d','e'
9.78,'d','e'
9.94,'d','e'
12.53,'d','e'
12.88,'d','e'
13.43,'d','e'
11.83,'d','e'
10.62,'d','e'
12.53,'d','e'
13.74,'d','e'
7.62,'d','e'
10.72,'d','e'
10.48,'d','e'
10.73,'d','e'
9.95,'d','e'
13.88,'d','e'
15.29,'d','e'
10.84,'d','e'
14.49,'d','e'
11.54,'d','e'
12.78,'d','e'
14.53,'d','e'
10.21,'d','e'
9.17,'d','e'
10.97,'d','e'
13.06,'d','e'
12.44,'d','e'
8.79,'d','e'
10.55,'d','e'
12.61,'d','e'
14.25,'d','e'
11.36,'d','e'
9.26,'d','e'
13.27,'d','e'
10.62,'d','e'
10.87,'d','e'
13.1,'d','e'
12.06,'d','e'
14.58,'d','e'
12.86,'d','e'
13.84,'d','e'
11.2,'d','e'
11.98,'d','e'
12.88,'d','e'
12.6,'d','e'
13.09,'d','e'
12.59,'d','e'
8.96,'d','e'
10.65,'d','e'
8.55,'d','e'
10.96,'d','e'
8.7,'d','e'
10.19,'d','e'
7.53,'d','e'
12.52,'d','e'
9.8,'d','e'
15.96,'d','e'
12.24,'d','e'
9.96,'d','e'
11.14,'d','e'
11.11,'d','e'
12.15,'d','e'
17.26,'d','e'
9.67,'d','e'
13.85,'d','e'
12.36,'d','e'
10.87,'d','e'
13.64,'d','e'
13.86,'d','e'
9.92,'d','e'
15.15,'d','e'
10.29,'d','e'
11.22,'d','e'
12.86,'d','e'
10.45,'d','e'
9.4,'d','e'
14.68,'d','e'
15.72,'d','e'
10.91,'d','e'
8.86,'d','e'
12.94,'d','e'
11.81,'d','e'
8.9,'d','e'
12.61,'d','e'
9.84,'d','e'
9.39,'d','e'
12.51,'d','e'
13.23,'d','e'
11.39,'d','e'
7.77,'d','e'
14.77,'d','e'
14.45,'d','e'
11.29,'d','e'
11.4,'d','e'
13.13,'d','e'
8.77,'d','e'
13.61,'d','e'
12.58,'d','e'
15.1,'d','e'
13.53,'d','e'
10.52,'d','e'
11.35,'d','e'
12.67,'d','e'
15.34,'d','e'
8.25,'d','e'
11.63,'d','e'
13.27,'d','e'
11.48,'d','e'
12.73,'d','e'
10.44,'d','e'
13.99,'d','e'
7.88,'d','e'
9.74,'d','e'
14.73,'d','e'
7.56,'d','e'
15.48,'d','e'
7.66,'d','e'
7.95,'d','e'
7.44,'d','e'
10.41,'d','e'
13.07,'d','e'
9.99,'d','e'
10.33,'d','e'
9.72,'d','e'
13.21,'d','e'
11.03,'d','e'
11.64,'d','e'
10.28,'d','e'
11.1,'d','e'
9.04,'d','e'
9,'d','e'
13.21,'d','e'
9.72,'d','e'
9.67,'d','e'
10.54,'d','e'
12.51,'d','e'
10.42,'d','e'
8.39,'d','e'
13.42,'d','e'
15.37,'d','e'
11.37,'d','e'
13.57,'d','e'
11.32,'d','e'
13.04,'d','e'
10.52,'d','e'
11.87,'d','e'
11.95,'d','e'
12.11,'d','e'
8.61,'d','e'
11.61,'d','e'
10.86,'d','e'
11.11,'d','e'
7.8,'d','e'
12.46,'d','e'
10.01,'d','e'
14.8,'d','e'
13.16,'d','e'
9.84,'d','e'
8.12,'d','e'
11.83,'d','e'
11.51,'d','e'
13.26,'d','e'
15,'d','e'
8.53,'d','e'
12.95,'d','e'
8.89,'d','e'
13.73,'d','e'
11.59,'d','e'
14.14,'d','e'
9.5,'d','e'
9.87,'d','e'
11.51,'d','e'
10.56,'d','e'
7.78,'d','e'
12.68,'d','e'
11.08,'d','e'
11.74,'d','e'
13.2,'d','e'
10.46,'d','e'
15.42,'d','e'
12.02,'d','e'
9.02,'d','e'
12.82,'d','e'
10.83,'d','e'
15.19,'d','e'
13.97,'d','e'
11.66,'d','e'
17.76,'d','e'
9.25,'d','e'
11.04,'d','e'
11.84,'d','e'
13.04,'d','e'
10.47,'d','e'
14.21,'d','e'
12.97,'d','e'
14.72,'d','e'
10.57,'d','e'
13.32,'d','e'
10.19,'d','e'
9.04,'d','e'
13.16,'d','e'
8.15,'d','e'
14.08,'d','e'
10.38,'d','e'
9.96,'d','e'
15.26,'d','e'
6.54,'d','e'
14.58,'d','e'
11.51,'d','e'
8.4,'d','e'
10.77,'d','e'
10.7,'d','e'
12.35,'d','e'
9.24,'d','e'
12.44,'d','e'
12.3,'d','e'
6.72,'d','e'
9.36,'d','e'
12.51,'d','e'
11.69,'d','e'
10.84,'d','e'
13.93,'d','e'
13.12,'d','e'
13.4,'d','e'
11.04,'d','e'
12.86,'d','e'
10.43,'d','e'
11.04,'d','e'
11.94,'d','e'
10.45,'d','e'
10.4,'d','e'
9.95,'d','e'
11.2,'d','e'
11.18,'d','e'
10.18,'d','e'
11.25,'d','e'
15.53,'d','e'
17.39,'d','e'
11.94,'d','e'
8.89,'d','e'
11.06,'d','e'
12.21,'d','e'
11.47,'d','e'
8.13,'d','e'
11.12,'d','e'
10.41,'d','e'
8.89,'d','e'
14.33,'d','e'
10.85,'d','e'
12.69,'d','e'
6.95,'d','e'
9.67,'d','e'
9.12,'d','e'
10.46,'d','e'
7.94,'d','e'
12.82,'d','e'
14.33,'d','e'
10.67,'d','e'
14.33,'d','e'
12.45,'d','e'
10.05,'d','e'
12.02,'d','e'
6.38,'d','e'
10.76,'d','e'
8.26,'d','e'
12.49,'d','e'
13.76,'d','e'
9.87,'d','e'
7.73,'d','e'
12.62,'d','e'
10.09,'d','e'
10.43,'d','e'
7.61,'d','e'
6.78,'d','e'
11.43,'d','e'
5.73,'d','e'
14.11,'d','e'
10.79,'d','e'
11.37,'d','e'
6.9,'d','e'
11.99,'d','e'
9.67,'d','e'
8.65,'d','e'
13.67,'d','e'
11.68,'d','e'
10.3,'d','e'
11.4,'d','e'
12.52,'d','e'
11.9,'d','e'
10.02,'d','e'
7.46,'d','e'
9.74,'d','e'
9.85,'d','e'
13.82,'d','e'
16.19,'d','e'
9.76,'d','e'
8.26,'d','e'
14.33,'d','e'
10.39,'d','e'
10.02,'d','e'
8.64,'d','e'
12.12,'d','e'
14.31,'d','e'
11.24,'d','e'
16.02,'d','e'
10.69,'d','e'
11.12,'d','e'
11.62,'d','e'
10.27,'d','e'
10.36,'d','e'
7.99,'d','e'
11.78,'d','e'
9.97,'d','e'
12.18,'d','e'
10.41,'d','e'
9.48,'d','e'
8.12,'d','e'
11.93,'d','e'
14.05,'d','e'
9.34,'d','e'
10.95,'d','e'
7.91,'d','e'
14.28,'d','e'
13.46,'d','e'
13.24,'d','e'
8.17,'d','e'
8.99,'d','e'
11.19,'d','e'
13.25,'d','e'
15.47,'d','e'
8.74,'d','e'
13.28,'d','e'
14.2,'d','e'
11.07,'d','e'
12.07,'d','e'
11.86,'d','e'
9.56,'d','e'
14.55,'d','e'
15.19,'d','e'
11.31,'d','e'
12.22,'d','e'
13.02,'d','e'
10,'d','e'
8.6,'d','e'
8.98,'d','e'
7.01,'d','e'
7.11,'d','e'
8.11,'d','e'
8.32,'d','e'
9.42,'d','e'
9.23,'d','e'
9.36,'d','e'
9.29,'d','e'
6.44,'d','e'
6.83,'d','e'
11.13,'d','e'
8.37,'d','e'
10.09,'d','e'
7.8,'d','e'
9.28,'d','e'
6.65,'d','e'
9.44,'d','e'
8.11,'d','e'
6.05,'d','e'
9.26,'d','e'
6.93,'d','e'
9.42,'d','e'
10.22,'d','e'
6.89,'d','e'
7.65,'d','e'
6.84,'d','e'
7.26,'d','e'
6.27,'d','e'
7.87,'d','e'
8.09,'d','e'
7.27,'d','e'
9.69,'d','e'
10.56,'d','e'
7.63,'d','e'
7.87,'d','e'
8.96,'d','e'
7.35,'d','e'
11.51,'d','e'
9.62,'d','e'
9.1,'d','e'
10.17,'d','e'
9.38,'d','e'
9.98,'d','e'
7.45,'d','e'
6.79,'d','e'
5.36,'d','e'
7.61,'d','e'
7.57,'d','e'
9,'d','e'
9.19,'d','e'
9.93,'d','e'
8.09,'d','e'
8.56,'d','e'
9.51,'d','e'
8.46,'d','e'
7.94,'d','e'
6.9,'d','e'
7.12,'d','e'
8.84,'d','e'
8.52,'d','e'
6.73,'d','e'
8.82,'d','e'
9.93,'d','e'
7.49,'d','e'
9.61,'d','e'
6.54,'d','e'
7.55,'d','e'
8.59,'d','e'
7.98,'d','e'
8.59,'d','e'
8.51,'d','e'
7.63,'d','e'
6.22,'d','e'
9.3,'d','e'
10.93,'d','e'
9.4,'d','e'
5.19,'d','e'
7.61,'d','e'
8.12,'d','e'
8.79,'d','e'
6.98,'d','e'
6.07,'d','e'
10.08,'d','e'
8.56,'d','e'
9.15,'d','e'
7.54,'d','e'
10.66,'d','e'
9.47,'d','e'
7.92,'d','e'
8.89,'d','e'
9.15,'d','e'
9.09,'d','e'
8.38,'d','e'
9.2,'d','e'
8.4,'d','e'
5.82,'d','e'
9.82,'d','e'
8.58,'d','e'
8.91,'d','e'
9.43,'d','e'
11.45,'d','e'
7.91,'d','e'
6.97,'d','e'
7.89,'d','e'
8.62,'d','e'
8.33,'d','e'
8.7,'d','e'
8.65,'d','e'
10.46,'d','e'
8.78,'d','e'
8.96,'d','e'
7.87,'d','e'
9.57,'d','e'
7.54,'d','e'
9.13,'d','e'
8.25,'d','e'
9.77,'d','e'
7.75,'d','e'
8.16,'d','e'
8.97,'d','e'
8.79,'d','e'
10.97,'d','e'
7.24,'d','e'
7.91,'d','e'
10.53,'d','e'
9.02,'d','e'
9.83,'d','e'
7.82,'d','e'
8.89,'d','e'
8.94,'d','e'
8.27,'d','e'
7.52,'d','e'
7.02,'d','e'
9.37,'d','e'
7.68,'d','e'
10.3,'d','e'
8.43,'d','e'
7.17,'d','e'
8.36,'d','e'
7.73,'d','e'
9.88,'d','e'
10.01,'d','e'
6.48,'d','e'
10.69,'d','e'
7.81,'d','e'
8.38,'d','e'
8.57,'d','e'
5.45,'d','e'
6.73,'d','e'
7.5,'d','e'
9.83,'d','e'
9.17,'d','e'
8.93,'d','e'
10.19,'d','e'
10.25,'d','e'
8.46,'d','e'
9.4,'d','e'
8.2,'d','e'
9.22,'d','e'
9.15,'d','e'
6.97,'d','e'
8.7,'d','e'
11.27,'d','e'
7.62,'d','e'
8.16,'d','e'
7.53,'d','e'
7.96,'d','e'
8.96,'d','e'
8.64,'d','e'
7.5,'d','e'
9.61,'d','e'
7.53,'d','e'
9.77,'d','e'
7.37,'d','e'
10.01,'d','e'
9.47,'d','e'
8.53,'d','e'
8.01,'d','e'
8.67,'d','e'
8.04,'d','e'
8.14,'d','e'
10.38,'d','e'
8.74,'d','e'
7.05,'d','e'
8.24,'d','e'
7.94,'d','e'
7.86,'d','e'
7.99,'d','e'
8.86,'d','e'
8.91,'d','e'
8.57,'d','e'
8.7,'d','e'
9.69,'d','e'
9,'d','e'
8.71,'d','e'
8.27,'d','e'
9.44,'d','e'
8.79,'d','e'
10.77,'d','e'
9.38,'d','e'
8.26,'d','e'
8.67,'d','e'
8.35,'d','e'
8.19,'d','e'
6.98,'d','e'
6.84,'d','e'
8.92,'d','e'
8.47,'d','e'
6.56,'d','e'
8.59,'d','e'
10.81,'d','e'
9.07,'d','e'
11.36,'d','e'
7.59,'d','e'
7.32,'d','e'
6.63,'d','e'
8.71,'d','e'
7.49,'d','e'
7.03,'d','e'
8.99,'d','e'
10.31,'d','e'
7.61,'d','e'
9.4,'d','e'
8.81,'d','e'
5.93,'d','e'
9.06,'d','e'
10.16,'d','e'
8.88,'d','e'
8.7,'d','e'
7.67,'d','e'
8.85,'d','e'
8.81,'d','e'
9.76,'d','e'
6.16,'d','e'
6.56,'d','e'
10.22,'d','e'
8.44,'d','e'
9.14,'d','e'
8.05,'d','e'
6.07,'d','e'
10.36,'d','e'
7.38,'d','e'
8.06,'d','e'
11.42,'d','e'
6.1,'d','e'
8.29,'d','e'
8.65,'d','e'
6.7,'d','e'
9.4,'d','e'
10,'d','e'
10.87,'d','e'
8.45,'d','e'
6.76,'d','e'
9.64,'d','e'
8.09,'d','e'
8.72,'d','e'
10.11,'d','e'
10.64,'d','e'
6.76,'d','e'
6.9,'d','e'
7.31,'d','e'
7.8,'d','e'
10.21,'d','e'
10.28,'d','e'
7.47,'d','e'
8.09,'d','e'
10.16,'d','e'
6.88,'d','e'
5.8,'d','e'
7.92,'d','e'
7.18,'d','e'
7.78,'d','e'
7.11,'d','e'
10.38,'d','e'
9.67,'d','e'
9.09,'d','e'
8.51,'d','e'
10.44,'d','e'
10.54,'d','e'
7.95,'d','e'
5.77,'d','e'
7.88,'d','e'
7.1,'d','e'
8.33,'d','e'
8.3,'d','e'
6,'d','e'
8.97,'d','e'
6.49,'d','e'
7.3,'d','e'
8.27,'d','e'
7.7,'d','e'
10.57,'d','e'
6.59,'d','e'
8.77,'d','e'
10.6,'d','e'
9.5,'d','e'
7.51,'d','e'
8.86,'d','e'
9.09,'d','e'
8.65,'d','e'
8.07,'d','e'
11.19,'d','e'
6.49,'d','e'
8.7,'d','e'
10.28,'d','e'
8.63,'d','e'
9.58,'d','e'
8.32,'d','e'
8.62,'d','e'
9.38,'d','e'
8.34,'d','e'
7.41,'d','e'
7.78,'d','e'
5.5,'d','e'
8.2,'d','e'
8.69,'d','e'
5.46,'d','e'
8.91,'d','e'
8.89,'d','e'
9.93,'d','e'
9.18,'d','e'
7.71,'d','e'
8.33,'d','e'
9.62,'d','e'
8.58,'d','e'
9.34,'d','e'
8.49,'d','e'
7.97,'d','e'
7.31,'d','e'
9.59,'d','e'
8.95,'d','e'
9.79,'d','e'
8.9,'d','e'
8.45,'d','e'
8.62,'d','e'
7.59,'d','e'
8.95,'d','e'
8.37,'d','e'
9.12,'d','e'
7.82,'d','e'
8.95,'d','e'
8.67,'d','e'
8.87,'d','e'
10.51,'d','e'
9.05,'d','e'
9.9,'d','e'
7.18,'d','e'
7.7,'d','e'
7.52,'d','e'
7.26,'d','e'
9.36,'d','e'
6.02,'d','p'
7,'d','p'
9.08,'d','p'
10.22,'d','p'
6.58,'d','p'
5.99,'d','p'
8.43,'d','p'
6.81,'d','p'
9.42,'d','p'
9.38,'d','p'
8.98,'d','p'
7.95,'d','p'
8.45,'d','p'
4.14,'d','p'
6.78,'d','p'
9.16,'d','p'
6.12,'d','p'
5.48,'d','p'
7.35,'d','p'
6.64,'d','p'
6.77,'d','p'
5.52,'d','p'
6.99,'d','p'
8.18,'d','p'
8.23,'d','p'
6.51,'d','p'
7.46,'d','p'
6.59,'d','p'
8.3,'d','p'
7.63,'d','p'
8.82,'d','p'
8.53,'d','p'
9.6,'d','p'
5.71,'d','p'
9.42,'d','p'
4.75,'d','p'
9.85,'d','p'
10.5,'d','p'
5.6,'d','p'
6.72,'d','p'
4.41,'d','p'
9.46,'d','p'
9.33,'d','p'
8.37,'d','p'
8.58,'d','p'
8.3,'d','p'
9.83,'d','p'
7.47,'d','p'
9.92,'d','p'
6.95,'d','p'
7.59,'d','p'
7.55,'d','p'
5.23,'d','p'
7.37,'d','p'
8.23,'d','p'
7.22,'d','p'
9.26,'d','p'
6.45,'d','p'
7.1,'d','p'
4.4,'d','p'
9.95,'d','p'
9.36,'d','p'
7.64,'d','p'
6.86,'d','p'
10.5,'d','p'
7.78,'d','p'
8.39,'d','p'
5.93,'d','p'
8.79,'d','p'
6.86,'d','p'
5.67,'d','p'
5.33,'d','p'
9.29,'d','p'
8.4,'d','p'
4.57,'d','p'
7.61,'d','p'
6.86,'d','p'
10.13,'d','p'
6.64,'d','p'
6.62,'d','p'
5.12,'d','p'
5.78,'d','p'
6.05,'d','p'
7.6,'d','p'
9.25,'d','p'
7.91,'d','p'
8.61,'d','p'
8.65,'d','p'
4.92,'d','p'
9.17,'d','p'
8.03,'d','p'
6.6,'d','p'
8.91,'d','p'
8.7,'d','p'
7.84,'d','p'
5.62,'d','p'
5.72,'d','p'
5.91,'d','p'
10.48,'d','p'
7.25,'d','p'
8.72,'d','p'
6.04,'d','p'
9.94,'d','p'
7.58,'d','p'
7.13,'d','p'
5.42,'d','p'
6.02,'d','p'
8.56,'d','p'
5.55,'d','p'
8.91,'d','p'
9.38,'d','p'
5.33,'d','p'
7.67,'d','p'
5.21,'d','p'
7.71,'d','p'
9.14,'d','p'
9.31,'d','p'
6.94,'d','p'
6.85,'d','p'
9.41,'d','p'
5.07,'d','p'
4.57,'d','p'
7.37,'d','p'
6.53,'d','p'
8.11,'d','p'
7.19,'d','p'
7.27,'d','p'
7.78,'d','p'
4.3,'d','p'
7.43,'d','p'
9.35,'d','p'
8.16,'d','p'
6.92,'d','p'
7.09,'d','p'
7.45,'d','p'
7.33,'d','p'
5.56,'d','p'
7.56,'d','p'
9.7,'d','p'
5.94,'d','p'
8.32,'d','p'
4.61,'d','p'
8.5,'d','p'
7.35,'d','p'
9.13,'d','p'
6.5,'d','p'
6.35,'d','p'
6.51,'d','p'
5.75,'d','p'
7.86,'d','p'
6.8,'d','p'
7.56,'d','p'
7.65,'d','p'
7.71,'d','p'
6.8,'d','p'
6.34,'d','p'
6.45,'d','p'
7.88,'d','p'
6.77,'d','p'
6.45,'d','p'
7.78,'d','p'
6.06,'d','p'
5.29,'d','p'
7.4,'d','p'
8.33,'d','p'
7.89,'d','p'
8.47,'d','p'
6,'d','p'
7.57,'d','p'
7.57,'d','p'
8.01,'d','p'
7.61,'d','p'
5.82,'d','p'
4.73,'d','p'
6.56,'d','p'
8.38,'d','p'
9.66,'d','p'
8.05,'d','p'
6.55,'d','p'
7.62,'d','p'
6.9,'d','p'
6.6,'d','p'
7.57,'d','p'
7.31,'d','p'
8.19,'d','p'
9.56,'d','p'
7.69,'d','p'
8.64,'d','p'
6.84,'d','p'
7.88,'d','p'
5.78,'d','p'
3.25,'d','p'
4.92,'d','p'
7.09,'d','p'
10.25,'d','p'
5.96,'d','p'
8.15,'d','p'
6.24,'d','p'
8.72,'d','p'
8.54,'d','p'
8.31,'d','p'
7.01,'d','p'
6.64,'d','p'
7.02,'d','p'
8.6,'d','p'
7.69,'d','p'
6.69,'d','p'
7.02,'d','p'
5.91,'d','p'
5.1,'d','p'
9.73,'d','p'
7.52,'d','p'
7.33,'d','p'
6.33,'d','p'
6.31,'d','p'
6.52,'d','p'
7.13,'d','p'
7.86,'d','p'
7.37,'d','p'
7.38,'d','p'
6.3,'d','p'
7.42,'d','p'
8.56,'d','p'
10.2,'d','p'
4.4,'d','p'
5.32,'d','p'
6.72,'d','p'
7.21,'d','p'
7.84,'d','p'
7.12,'d','p'
7.14,'d','p'
6.8,'d','p'
10.06,'d','p'
8.46,'d','p'
6.61,'d','p'
6.23,'d','p'
6.39,'d','p'
8.25,'d','p'
5.85,'d','p'
10.39,'d','p'
8.93,'d','p'
7.03,'d','p'
9.03,'d','p'
8.72,'d','p'
7.18,'d','p'
9.76,'d','p'
8.12,'d','p'
8.03,'d','p'
5.91,'d','p'
6.69,'d','p'
6.54,'d','p'
7.88,'d','p'
6.86,'d','p'
8,'d','p'
4.96,'d','p'
8.7,'d','p'
6.58,'d','p'
7.03,'d','p'
9.67,'d','p'
7.59,'d','p'
6.42,'d','p'
10.92,'d','p'
7.59,'d','p'
4.13,'d','p'
8.73,'d','p'
7.12,'d','p'
7.56,'d','p'
6.63,'d','p'
5.54,'d','p'
9.29,'d','p'
7.01,'d','p'
7.9,'d','p'
6.96,'d','p'
8.96,'d','p'
5.55,'d','p'
7.06,'d','p'
6.3,'d','p'
6.24,'d','p'
8.86,'d','p'
7.75,'d','p'
5.16,'d','p'
7.48,'d','p'
7.6,'d','p'
9.54,'d','p'
7.6,'d','p'
5.47,'d','p'
8.28,'d','p'
8.34,'d','p'
6.51,'d','p'
8.46,'d','p'
8.47,'d','p'
7.87,'d','p'
9.07,'d','p'
7.97,'d','p'
4.58,'d','p'
7.12,'d','p'
7.68,'d','p'
8.9,'d','p'
5.21,'d','p'
8.17,'d','p'
8.02,'d','p'
7.63,'d','p'
7.99,'d','p'
8.15,'d','p'
9.05,'d','p'
5.69,'d','p'
9.39,'d','p'
7.04,'d','p'
6.94,'d','p'
8.45,'d','p'
8.6,'d','p'
8.64,'d','p'
8.57,'d','p'
7.2,'d','p'
8,'d','p'
4.28,'d','p'
8.29,'d','p'
7.58,'d','p'
7.05,'d','p'
6.87,'d','p'
8.93,'d','p'
7.72,'d','p'
6.21,'d','p'
6.16,'d','p'
9.02,'d','p'
10.46,'d','p'
4.48,'d','p'
8.07,'d','p'
9.86,'d','p'
7.09,'d','p'
5.22,'d','p'
8.27,'d','p'
7.67,'d','p'
9.91,'d','p'
8.26,'d','p'
6.7,'d','p'
7.46,'d','p'
7.26,'d','p'
7.93,'d','p'
6.8,'d','p'
9.4,'d','p'
7.81,'d','p'
8.59,'d','p'
6.26,'d','p'
7.15,'d','p'
10.31,'d','p'
9.11,'d','p'
6.89,'d','p'
7.06,'d','p'
8.94,'d','p'
3.63,'d','p'
8.68,'d','p'
7.81,'d','p'
2.48,'d','p'
4.29,'d','p'
4.29,'d','p'
4.72,'d','p'
4.66,'d','p'
6.5,'d','p'
3.28,'d','p'
4.27,'d','p'
4.62,'d','p'
3.91,'d','p'
4.36,'d','p'
3.83,'d','p'
5.14,'d','p'
5.4,'d','p'
4.65,'d','p'
4.27,'d','p'
3.65,'d','p'
4.28,'d','p'
4.32,'d','p'
4.89,'d','p'
3.46,'d','p'
4.6,'d','p'
4,'d','p'
3.1,'d','p'
4.56,'d','p'
5.03,'d','p'
5.59,'d','p'
3.25,'d','p'
3.38,'d','p'
5.1,'d','p'
4.41,'d','p'
3.56,'d','p'
3.75,'d','p'
4.13,'d','p'
3.92,'d','p'
2.19,'d','p'
5.82,'d','p'
3.65,'d','p'
4.4,'d','p'
4.6,'d','p'
5.22,'d','p'
3.5,'d','p'
3.42,'d','p'
4.82,'d','p'
2.37,'d','p'
4.16,'d','p'
4.27,'d','p'
5.73,'d','p'
4.59,'d','p'
4.31,'d','p'
4.66,'d','p'
3.95,'d','p'
5.64,'d','p'
4.29,'d','p'
4.83,'d','p'
4.02,'d','p'
4.34,'d','p'
3.98,'d','p'
5.84,'d','p'
4.08,'d','p'
4.45,'d','p'
4.3,'d','p'
3.85,'d','p'
4.72,'d','p'
4.3,'d','p'
5.07,'d','p'
5.36,'d','p'
3.53,'d','p'
5.8,'d','p'
5.25,'d','p'
4.48,'d','p'
4.02,'d','p'
4,'d','p'
4.33,'d','p'
4.26,'d','p'
3.84,'d','p'
4.49,'d','p'
4.61,'d','p'
6.02,'d','p'
4.74,'d','p'
4.89,'d','p'
5.34,'d','p'
4.82,'d','p'
3.85,'d','p'
4.21,'d','p'
4.43,'d','p'
4.66,'d','p'
4.61,'d','p'
5.11,'d','p'
4.84,'d','p'
5.39,'d','p'
5.76,'d','p'
5.07,'d','p'
5.66,'d','p'
3.5,'d','p'
4.41,'d','p'
4.59,'d','p'
5.25,'d','p'
5.62,'d','p'
4.49,'d','p'
2.34,'d','p'
4.91,'d','p'
3.92,'d','p'
5.14,'d','p'
3.83,'d','p'
3.24,'d','p'
5.47,'d','p'
5.09,'d','p'
4.09,'d','p'
4.81,'d','p'
4.17,'d','p'
3.79,'d','p'
4.63,'d','p'
4.07,'d','p'
4.66,'d','p'
4.1,'d','p'
3.94,'d','p'
4.38,'d','p'
5.29,'d','p'
3.43,'d','p'
3.91,'d','p'
4.21,'d','p'
4.62,'d','p'
4.74,'d','p'
5.17,'d','p'
4.41,'d','p'
4.15,'d','p'
3.55,'d','p'
4.8,'d','p'
4.95,'d','p'
3.97,'d','p'
3.03,'d','p'
4.9,'d','p'
4.35,'d','p'
5.26,'d','p'
4.61,'d','p'
4.67,'d','p'
4.43,'d','p'
4.39,'d','p'
5.19,'d','p'
3.37,'d','p'
4.08,'d','p'
6.2,'d','p'
3.33,'d','p'
3.81,'d','p'
3.91,'d','p'
4.7,'d','p'
3.89,'d','p'
4.22,'d','p'
4.13,'d','p'
5.49,'d','p'
4.67,'d','p'
3.7,'d','p'
3.44,'d','p'
4.6,'d','p'
3.93,'d','p'
4.78,'d','p'
4.74,'d','p'
5.58,'d','p'
4.73,'d','p'
6.38,'d','p'
5.19,'d','p'
4.96,'d','p'
4.59,'d','p'
4.62,'d','p'
3.5,'d','p'
3.49,'d','p'
5.87,'d','p'
3.76,'d','p'
3.26,'d','p'
4.33,'d','p'
4.34,'d','p'
4.23,'d','p'
5.01,'d','p'
3.52,'d','p'
5.01,'d','p'
5.52,'d','p'
4.72,'d','p'
4.35,'d','p'
4.41,'d','p'
3.63,'d','p'
4.88,'d','p'
3.29,'d','p'
4.49,'d','p'
5.06,'d','p'
4.73,'d','p'
4.62,'d','p'
4.07,'d','p'
3.46,'d','p'
5.87,'d','p'
3.5,'d','p'
3.4,'d','p'
5.15,'d','p'
4.91,'d','p'
3.57,'d','p'
3.3,'d','p'
5.45,'d','p'
3.78,'d','p'
4.74,'d','p'
4.37,'d','p'
3.83,'d','p'
4.29,'d','p'
3.24,'d','p'
3.89,'d','p'
3.37,'d','p'
4.66,'d','p'
4.18,'d','p'
3.86,'d','p'
2.86,'d','p'
4.05,'d','p'
4.41,'d','p'
3.66,'d','p'
3.25,'d','p'
4.27,'d','p'
4.63,'d','p'
4.95,'d','p'
5.66,'d','p'
4.67,'d','p'
4.77,'d','p'
4.82,'d','p'
4.24,'d','p'
3.04,'d','p'
5.15,'d','p'
5.84,'d','p'
4.63,'d','p'
3.39,'d','p'
3.49,'d','p'
3.7,'d','p'
3.59,'d','p'
5.77,'d','p'
6.73,'d','p'
4.01,'d','p'
3.91,'d','p'
4.75,'d','p'
4.56,'d','p'
5.34,'d','p'
4.3,'d','p'
4.09,'d','p'
6,'d','p'
5.79,'d','p'
5.13,'d','p'
4.07,'d','p'
5.53,'d','p'
3.85,'d','p'
6.58,'d','p'
4.39,'d','p'
3.04,'d','p'
3.33,'d','p'
5.61,'d','p'
4.81,'d','p'
4.74,'d','p'
2.99,'d','p'
3.65,'d','p'
5.01,'d','p'
4.53,'d','p'
4.42,'d','p'
4.22,'d','p'
3.84,'d','p'
4.7,'d','p'
4.59,'d','p'
5.36,'d','p'
4.22,'d','p'
4.66,'d','p'
4.16,'d','p'
5.51,'d','p'
6.12,'d','p'
4.06,'d','p'
5.1,'d','p'
5.65,'d','p'
3.85,'d','p'
3.81,'d','p'
5.9,'d','p'
4.04,'d','p'
5.66,'d','p'
4.91,'d','p'
6.1,'d','p'
4.55,'d','p'
3.47,'d','p'
4.84,'d','p'
4.29,'d','p'
5.84,'d','p'
4.98,'d','p'
3.68,'d','p'
3.04,'d','p'
3.82,'d','p'
4.47,'d','p'
5.78,'d','p'
4.66,'d','p'
4.32,'d','p'
4.09,'d','p'
4.2,'d','p'
4.99,'d','p'
4.87,'d','p'
3.75,'d','p'
5.22,'d','p'
6.17,'d','p'
5.21,'d','p'
5.32,'d','p'
5.63,'d','p'
5.21,'d','p'
4.25,'d','p'
3.84,'d','p'
5.82,'d','p'
3.8,'d','p'
4.06,'d','p'
5.65,'d','p'
4.38,'d','p'
3.59,'d','p'
4.12,'d','p'
5.91,'d','p'
5.33,'d','p'
5.87,'d','p'
5.32,'d','p'
5.39,'d','p'
5.49,'d','p'
4.32,'d','p'
4.21,'d','p'
3.62,'d','p'
4.55,'d','p'
4.86,'d','p'
4.27,'d','p'
3.7,'d','p'
3.91,'d','p'
4.89,'d','p'
5.1,'d','p'
3.94,'d','p'
4.65,'d','p'
5.21,'d','p'
6.31,'d','p'
4.83,'d','p'
4.38,'d','p'
4.92,'d','p'
4.36,'d','p'
4.89,'d','p'
5.66,'d','p'
3.46,'d','p'
3.83,'d','p'
5.51,'d','p'
2.45,'d','p'
4.2,'d','p'
3.83,'d','p'
3.41,'d','p'
4.25,'d','p'
3.15,'d','p'
3.35,'d','p'
4.87,'d','p'
6.13,'d','p'
4.68,'d','p'
3.64,'d','p'
4.19,'d','p'
4.85,'d','p'
4.23,'d','p'
4.87,'d','p'
9.76,'d','e'
10.31,'d','e'
10.75,'d','e'
9.41,'d','e'
11.89,'d','e'
9.96,'d','e'
7.22,'d','e'
9.95,'d','e'
11.41,'d','e'
10.34,'d','e'
11.84,'d','e'
8.45,'d','e'
11.1,'d','e'
9.04,'d','e'
8.73,'d','e'
10.66,'d','e'
8.99,'d','e'
10.75,'d','e'
10.76,'d','e'
8.32,'d','e'
8.68,'d','e'
10.05,'d','e'
9.81,'d','e'
8.05,'d','e'
9.53,'d','e'
8.56,'d','e'
11.67,'d','e'
11.75,'d','e'
11.17,'d','e'
12.06,'d','e'
9.14,'d','e'
9.48,'d','e'
10.35,'d','e'
11.73,'d','e'
9.6,'d','e'
9.32,'d','e'
11.1,'d','e'
11.84,'d','e'
8.48,'d','e'
7.87,'d','e'
8.87,'d','e'
8.22,'d','e'
10.4,'d','e'
10.41,'d','e'
10.36,'d','e'
9.76,'d','e'
9.17,'d','e'
9.46,'d','e'
9.21,'d','e'
11.79,'d','e'
11.83,'d','e'
10.87,'d','e'
8.08,'d','e'
11.19,'d','e'
11.55,'d','e'
10.07,'d','e'
8.31,'d','e'
9.59,'d','e'
9.23,'d','e'
10.09,'d','e'
10.8,'d','e'
7.87,'d','e'
10.56,'d','e'
9.17,'d','e'
10.57,'d','e'
10.45,'d','e'
8.36,'d','e'
10.1,'d','e'
10.33,'d','e'
12,'d','e'
11.11,'d','e'
9.17,'d','e'
11.44,'d','e'
8.38,'d','e'
9.22,'d','e'
8,'d','e'
9.11,'d','e'
10.29,'d','e'
11.47,'d','e'
8.94,'d','e'
9.66,'d','e'
11.07,'d','e'
11.38,'d','e'
7.51,'d','e'
12.24,'d','e'
11.07,'d','e'
9.34,'d','e'
7.55,'d','e'
9.57,'d','e'
8.99,'d','e'
9.95,'d','e'
10.74,'d','e'
8.44,'d','e'
10.91,'d','e'
9.78,'d','e'
9.89,'d','e'
7.62,'d','e'
11.77,'d','e'
9.58,'d','e'
9.02,'d','e'
7.71,'d','e'
10.98,'d','e'
8.66,'d','e'
9.19,'d','e'
11.69,'d','e'
12.92,'d','e'
11.3,'d','e'
8.32,'d','e'
11.82,'d','e'
8.85,'d','e'
10.29,'d','e'
10.1,'d','e'
11.77,'d','e'
9.07,'d','e'
8.7,'d','e'
9.9,'d','e'
10.38,'d','e'
10.3,'d','e'
13.17,'d','e'
12.1,'d','e'
10.97,'d','e'
11.54,'d','e'
9.98,'d','e'
10.63,'d','e'
9.88,'d','e'
10.72,'d','e'
10.23,'d','e'
11.99,'d','e'
10.23,'d','e'
7.95,'d','e'
10.51,'d','e'
7.54,'d','e'
10.07,'d','e'
10.93,'d','e'
8.81,'d','e'
7.81,'d','e'
10.84,'d','e'
12.24,'d','e'
10.21,'d','e'
11,'d','e'
12.13,'d','e'
12.75,'d','e'
6.95,'d','e'
9.66,'d','e'
9.16,'d','e'
10.88,'d','e'
9.59,'d','e'
10.01,'d','e'
12.1,'d','e'
11.21,'d','e'
10.59,'d','e'
8.57,'d','e'
10.36,'d','e'
8.98,'d','e'
9.13,'d','e'
10.73,'d','e'
10.3,'d','e'
9.76,'d','e'
9.04,'d','e'
10.42,'d','e'
9.54,'d','e'
10.8,'d','e'
11.15,'d','e'
9.44,'d','e'
9.08,'d','e'
7.77,'d','e'
10.15,'d','e'
10.14,'d','e'
10.16,'d','e'
11.99,'d','e'
11.08,'d','e'
11.1,'d','e'
9.22,'d','e'
9.76,'d','e'
9.53,'d','e'
11.37,'d','e'
10.33,'d','e'
11.2,'d','e'
8.71,'d','e'
10.65,'d','e'
11,'d','e'
9.02,'d','e'
9.12,'d','e'
11.98,'d','e'
10.72,'d','e'
8.42,'d','e'
8.1,'d','e'
9.83,'d','e'
9.01,'d','e'
9.75,'d','e'
10.52,'d','e'
12.53,'d','e'
10.76,'d','e'
9.13,'d','e'
8.34,'d','e'
10.68,'d','e'
11.88,'d','e'
11.49,'d','e'
10.59,'d','e'
8.9,'d','e'
8.97,'d','e'
8.45,'d','e'
12.09,'d','e'
9.46,'d','e'
10.8,'d','e'
10.48,'d','e'
11.32,'d','e'
10.47,'d','e'
8.51,'d','e'
10.66,'d','e'
8.29,'d','e'
11.01,'d','e'
9.69,'d','e'
12.84,'d','e'
8.93,'d','e'
12.73,'d','e'
9.5,'d','e'
11.92,'d','e'
9.97,'d','e'
11.06,'d','e'
10.16,'d','e'
10.75,'d','e'
10.2,'d','e'
11.44,'d','e'
10.18,'d','e'
8.88,'d','e'
12.27,'d','e'
7.39,'d','e'
10.93,'d','e'
8.55,'d','e'
7.9,'d','e'
11.09,'d','e'
9.29,'d','e'
11.02,'d','e'
10.03,'d','e'
8.87,'d','e'
7.4,'d','e'
8.28,'d','e'
9.09,'d','e'
11.42,'d','e'
10.35,'d','e'
10.62,'d','e'
11.21,'d','e'
8.38,'d','e'
11.57,'d','e'
10.03,'d','e'
8.43,'d','e'
9.64,'d','e'
7.96,'d','e'
11.24,'d','e'
10.67,'d','e'
8.28,'d','e'
9.32,'d','e'
8.66,'d','e'
7.83,'d','e'
8.72,'d','e'
8.11,'d','e'
11.34,'d','e'
9.48,'d','e'
9.48,'d','e'
8.88,'d','e'
10.41,'d','e'
11.09,'d','e'
8.28,'d','e'
8.57,'d','e'
10.68,'d','e'
9.7,'d','e'
10.91,'d','e'
9.35,'d','e'
10.34,'d','e'
10.86,'d','e'
12.1,'d','e'
10.96,'d','e'
10.44,'d','e'
10.81,'d','e'
11.71,'d','e'
9.62,'d','e'
9.88,'d','e'
12.05,'d','e'
10.78,'d','e'
9.39,'d','e'
10.45,'d','e'
10.17,'d','e'
10.11,'d','e'
7.67,'d','e'
10.43,'d','e'
11.99,'d','e'
11.39,'d','e'
12.01,'d','e'
11.82,'d','e'
9.21,'d','e'
9.33,'d','e'
11.11,'d','e'
10.68,'d','e'
12,'d','e'
10.89,'d','e'
12.14,'d','e'
7.5,'d','e'
11.93,'d','e'
9.68,'d','e'
9.2,'d','e'
8.17,'d','e'
8.54,'d','e'
10.19,'d','e'
11.1,'d','e'
10.1,'d','e'
12.03,'d','e'
8.31,'d','e'
10.05,'d','e'
10.34,'d','e'
10.9,'d','e'
8.3,'d','e'
11.82,'d','e'
11.58,'d','e'
10.38,'d','e'
11.49,'d','e'
11.69,'d','e'
10.58,'d','e'
9.44,'d','e'
8.75,'d','e'
9.57,'d','e'
8.65,'d','e'
10.97,'d','e'
9.99,'d','e'
8.48,'d','e'
11.27,'d','e'
8.76,'d','e'
9.59,'d','e'
9.2,'d','e'
11.22,'d','e'
9.84,'d','e'
10.2,'d','e'
6.33,'d','e'
10.89,'d','e'
8.28,'d','e'
7.64,'d','e'
10.31,'d','e'
11.29,'d','e'
11.74,'d','e'
7.99,'d','e'
8.67,'d','e'
9.35,'d','e'
9.98,'d','e'
8.22,'d','e'
9.86,'d','e'
10.87,'d','e'
9.48,'d','e'
11.89,'d','e'
9.75,'d','e'
10.77,'d','e'
10.11,'d','e'
11.46,'d','e'
10.63,'d','e'
1.34,'d','p'
1.39,'d','p'
1.35,'d','p'
1.53,'d','p'
1.46,'d','p'
1.42,'d','p'
1.75,'d','p'
1.39,'d','p'
1.56,'d','p'
1.71,'d','p'
1.55,'d','p'
1.72,'d','p'
1.33,'d','p'
1.6,'d','p'
1.49,'d','p'
1.73,'d','p'
1.48,'d','p'
1.58,'d','p'
1.49,'d','p'
1.64,'d','p'
1.33,'d','p'
1.36,'d','p'
1.44,'d','p'
1.38,'d','p'
1.4,'d','p'
1.47,'d','p'
2.17,'d','p'
1.55,'d','p'
1.44,'d','p'
1.36,'d','p'
1.62,'d','p'
1.37,'d','p'
1.61,'d','p'
1.61,'d','p'
1.34,'d','p'
1.32,'d','p'
1.41,'d','p'
1.64,'d','p'
1.75,'d','p'
1.64,'d','p'
1.6,'d','p'
1.55,'d','p'
1.61,'d','p'
1.32,'d','p'
1.53,'d','p'
1.84,'d','p'
1.34,'d','p'
1.62,'d','p'
1.78,'d','p'
1.47,'d','p'
1.49,'d','p'
1.5,'d','p'
1.76,'d','p'
1.6,'d','p'
1.5,'d','p'
1.48,'d','p'
1.54,'d','p'
1.42,'d','p'
1.51,'d','p'
1.69,'d','p'
1.35,'d','p'
1.41,'d','p'
1.54,'d','p'
1.57,'d','p'
1.79,'d','p'
1.44,'d','p'
1.17,'d','p'
1.45,'d','p'
1.38,'d','p'
1.69,'d','p'
1.77,'d','p'
1.62,'d','p'
1.88,'d','p'
1.55,'d','p'
1.6,'d','p'
1.17,'d','p'
1.22,'d','p'
1.43,'d','p'
1.32,'d','p'
1.48,'d','p'
1.72,'d','p'
1.49,'d','p'
1.5,'d','p'
1.38,'d','p'
1.37,'d','p'
1.52,'d','p'
1.3,'d','p'
1.51,'d','p'
1.18,'d','p'
1.4,'d','p'
1.43,'d','p'
1.66,'d','p'
1.69,'d','p'
1.5,'d','p'
1.62,'d','p'
1.71,'d','p'
1.44,'d','p'
1.65,'d','p'
1.62,'d','p'
1.67,'d','p'
1.38,'d','p'
1.55,'d','p'
1.5,'d','p'
1.43,'d','p'
1.47,'d','p'
1.38,'d','p'
1.55,'d','p'
1.44,'d','p'
1.72,'d','p'
1.48,'d','p'
1.81,'d','p'
1.53,'d','p'
1.58,'d','p'
1.58,'d','p'
1.57,'d','p'
1.83,'d','p'
1.56,'d','p'
1.08,'d','p'
1.45,'d','p'
0.91,'d','p'
1.55,'d','p'
1.5,'d','p'
1.28,'d','p'
1.7,'d','p'
1.56,'d','p'
1.34,'d','p'
1.56,'d','p'
1.62,'d','p'
1.69,'d','p'
1.59,'d','p'
1.64,'d','p'
1.5,'d','p'
1.64,'d','p'
1.54,'d','p'
1.39,'d','p'
1.52,'d','p'
1.7,'d','p'
1.47,'d','p'
1.28,'d','p'
1.46,'d','p'
1.67,'d','p'
1.63,'d','p'
1.36,'d','p'
1.44,'d','p'
1.4,'d','p'
1.62,'d','p'
1.17,'d','p'
1.39,'d','p'
1.54,'d','p'
1.41,'d','p'
1.7,'d','p'
1.58,'d','p'
1.32,'d','p'
1.44,'d','p'
1.33,'d','p'
1.59,'d','p'
1.32,'d','p'
1.69,'d','p'
1.59,'d','p'
1.52,'d','p'
1.39,'d','p'
1.27,'d','p'
1.36,'d','p'
1.57,'d','p'
1.26,'d','p'
1.82,'d','p'
1.39,'d','p'
1.39,'d','p'
1.82,'d','p'
1.6,'d','p'
1.83,'d','p'
1.8,'d','p'
1.56,'d','p'
1.49,'d','p'
1.4,'d','p'
1.42,'d','p'
1.38,'d','p'
1.25,'d','p'
1.7,'d','p'
1.43,'d','p'
1.36,'d','p'
1.55,'d','p'
1.36,'d','p'
1.79,'d','p'
1.53,'d','p'
1.68,'d','p'
1.28,'d','p'
1.4,'d','p'
1.59,'d','p'
1.39,'d','p'
1.68,'d','p'
1.5,'d','p'
1.36,'d','p'
1.51,'d','p'
1.39,'d','p'
1.42,'d','p'
1.41,'d','p'
1.58,'d','p'
1.29,'d','p'
1.41,'d','p'
1.48,'d','p'
1.58,'d','p'
1.69,'d','p'
1.46,'d','p'
1.36,'d','p'
1.2,'d','p'
1.51,'d','p'
1.35,'d','p'
1.62,'d','p'
1.48,'d','p'
1.43,'d','p'
1.46,'d','p'
1.26,'d','p'
1.5,'d','p'
1.48,'d','p'
1.58,'d','p'
1.63,'d','p'
1.67,'d','p'
1.52,'d','p'
1.63,'d','p'
1.17,'d','p'
1.38,'d','p'
1.38,'d','p'
1.52,'d','p'
1.67,'d','p'
1.7,'d','p'
1.45,'d','p'
1.57,'d','p'
1.47,'d','p'
1.37,'d','p'
1.47,'d','p'
1.59,'d','p'
1.42,'d','p'
1.41,'d','p'
1.41,'d','p'
1.44,'d','p'
1.6,'d','p'
1.52,'d','p'
1.54,'d','p'
1.37,'d','p'
1.71,'d','p'
1.58,'d','p'
1.66,'d','p'
1.34,'d','p'
1.78,'d','p'
1.45,'d','p'
1.72,'d','p'
1.45,'d','p'
1.32,'d','p'
1.58,'d','p'
1.49,'d','p'
1.4,'d','p'
1.4,'d','p'
1.51,'d','p'
1.58,'d','p'
1.42,'d','p'
1.65,'d','p'
1.4,'d','p'
1.68,'d','p'
1.44,'d','p'
1.66,'d','p'
1.51,'d','p'
1.59,'d','p'
1.24,'d','p'
1.72,'d','p'
1.71,'d','p'
1.44,'d','p'
1.25,'d','p'
1.62,'d','p'
1.4,'d','p'
1.48,'d','p'
1.68,'d','p'
1.39,'d','p'
1.28,'d','p'
1.33,'d','p'
1.6,'d','p'
1.61,'d','p'
1.6,'d','p'
1.58,'d','p'
1.6,'d','p'
1.79,'d','p'
1.54,'d','p'
1.3,'d','p'
1.58,'d','p'
1.33,'d','p'
1.61,'d','p'
1.55,'d','p'
1.52,'d','p'
1.53,'d','p'
1.29,'d','p'
1.41,'d','p'
1.7,'d','p'
1.2,'d','p'
1.37,'d','p'
1.58,'d','p'
1.73,'d','p'
1.59,'d','p'
1.71,'d','p'
1.55,'d','p'
1.8,'d','p'
1.41,'d','p'
1.46,'d','p'
1.36,'d','p'
1.67,'d','p'
1.44,'d','p'
1.57,'d','p'
1.79,'d','p'
1.55,'d','p'
1.41,'d','p'
1.55,'d','p'
1.49,'d','p'
1.45,'d','p'
1.45,'d','p'
1.38,'d','p'
1.35,'d','p'
1.72,'d','p'
1.58,'d','p'
1.23,'d','p'
1.95,'d','p'
1.45,'d','p'
1.46,'d','p'
1.44,'d','p'
1.41,'d','p'
1.58,'d','p'
1.57,'d','p'
1.8,'d','p'
1.49,'d','p'
1.53,'d','p'
1.48,'d','p'
1.5,'d','p'
1.49,'d','p'
1.61,'d','p'
1.63,'d','p'
1.38,'d','p'
1.11,'d','p'
1.65,'d','p'
1.51,'d','p'
1.16,'d','p'
1.41,'d','p'
1.34,'d','p'
1.23,'d','p'
1.61,'d','p'
1.83,'d','p'
1.58,'d','p'
1.26,'d','p'
1.68,'d','p'
1.76,'d','p'
1.17,'d','p'
1.33,'d','p'
1.37,'d','p'
1.68,'d','p'
1.59,'d','p'
1.59,'d','p'
3.43,'d','p'
3.57,'d','p'
3.97,'d','p'
4.15,'d','p'
3.88,'d','p'
3.77,'d','p'
4.23,'d','p'
3.61,'d','p'
3.76,'d','p'
4.06,'d','p'
4.36,'d','p'
5.49,'d','p'
5.15,'d','p'
4.41,'d','p'
4.66,'d','p'
4.41,'d','p'
3.3,'d','p'
3.94,'d','p'
2.93,'d','p'
4.51,'d','p'
3.08,'d','p'
3.94,'d','p'
2.64,'d','p'
4.27,'d','p'
4.87,'d','p'
3.5,'d','p'
3.79,'d','p'
4.4,'d','p'
3.32,'d','p'
4.64,'d','p'
3.95,'d','p'
3.52,'d','p'
4.92,'d','p'
3.7,'d','p'
3.9,'d','p'
3.93,'d','p'
4.66,'d','p'
3.89,'d','p'
3.54,'d','p'
3.38,'d','p'
2.95,'d','p'
2.56,'d','p'
3.94,'d','p'
4.53,'d','p'
3.37,'d','p'
3.97,'d','p'
4.45,'d','p'
3.41,'d','p'
4.31,'d','p'
3.45,'d','p'
3.72,'d','p'
3.55,'d','p'
2.59,'d','p'
4.17,'d','p'
2.78,'d','p'
3.57,'d','p'
4.41,'d','p'
3.9,'d','p'
4.15,'d','p'
4.49,'d','p'
4.84,'d','p'
4.41,'d','p'
3.21,'d','p'
3.02,'d','p'
4.24,'d','p'
4.16,'d','p'
3.29,'d','p'
2.94,'d','p'
4.07,'d','p'
3.86,'d','p'
3.86,'d','p'
4.18,'d','p'
4.02,'d','p'
3.62,'d','p'
3.13,'d','p'
3.96,'d','p'
4.91,'d','p'
3.45,'d','p'
2.86,'d','p'
4.57,'d','p'
3.17,'d','p'
3.59,'d','p'
5.03,'d','p'
4.48,'d','p'
4.24,'d','p'
5.23,'d','p'
3.96,'d','p'
4.78,'d','p'
3.98,'d','p'
3.91,'d','p'
3.92,'d','p'
4.74,'d','p'
4.58,'d','p'
5.04,'d','p'
4.23,'d','p'
3.06,'d','p'
4.35,'d','p'
5.22,'d','p'
3.51,'d','p'
3.61,'d','p'
4.6,'d','p'
4.33,'d','p'
4.64,'d','p'
3.03,'d','p'
2.22,'d','p'
4.33,'d','p'
4.92,'d','p'
3.37,'d','p'
4.27,'d','p'
4.05,'d','p'
4.71,'d','p'
4.05,'d','p'
3.61,'d','p'
4.63,'d','p'
5.7,'d','p'
3.69,'d','p'
3.75,'d','p'
4.21,'d','p'
4.45,'d','p'
3.34,'d','p'
2.6,'d','p'
5.28,'d','p'
4.95,'d','p'
5.29,'d','p'
3.33,'d','p'
3.6,'d','p'
3.86,'d','p'
4.18,'d','p'
2.67,'d','p'
3.16,'d','p'
3.64,'d','p'
3.61,'d','p'
4.04,'d','p'
4.8,'d','p'
3.99,'d','p'
5.29,'d','p'
3.51,'d','p'
5.04,'d','p'
3.72,'d','p'
3.91,'d','p'
3.62,'d','p'
3.44,'d','p'
2.05,'d','p'
4.26,'d','p'
3.34,'d','p'
3.66,'d','p'
4.84,'d','p'
4.56,'d','p'
3.8,'d','p'
3.83,'d','p'
2.93,'d','p'
6.15,'d','p'
3.99,'d','p'
2.84,'d','p'
4.21,'d','p'
5.24,'d','p'
5.52,'d','p'
4.16,'d','p'
4.75,'d','p'
3.8,'d','p'
4.14,'d','p'
3.19,'d','p'
4.53,'d','p'
5.11,'d','p'
4.51,'d','p'
4.22,'d','p'
5.75,'d','p'
3.56,'d','p'
3.19,'d','p'
3.9,'d','p'
3.7,'d','p'
3.86,'d','p'
4.15,'d','p'
3.97,'d','p'
3.99,'d','p'
4.46,'d','p'
4.8,'d','p'
3.43,'d','p'
5.14,'d','p'
3.78,'d','p'
3.52,'d','p'
3.62,'d','p'
4.32,'d','p'
4.17,'d','p'
3.43,'d','p'
4.16,'d','p'
3.95,'d','p'
4.69,'d','p'
3.66,'d','p'
3.97,'d','p'
4.72,'d','p'
2.95,'d','p'
4.28,'d','p'
3.6,'d','p'
3.63,'d','p'
4.5,'d','p'
3.98,'d','p'
3.36,'d','p'
3.08,'d','p'
4.11,'d','p'
4.49,'d','p'
3.9,'d','p'
3.76,'d','p'
3.47,'d','p'
4.29,'d','p'
3.7,'d','p'
3.67,'d','p'
3.62,'d','p'
3.51,'d','p'
4.81,'d','p'
3.52,'d','p'
4.09,'d','p'
2.85,'d','p'
3.91,'d','p'
4.77,'d','p'
4.28,'d','p'
3.11,'d','p'
2.69,'d','p'
4.01,'d','p'
4.09,'d','p'
3.96,'d','p'
3.95,'d','p'
5.51,'d','p'
3.86,'d','p'
4.9,'d','p'
4.08,'d','p'
3.7,'d','p'
4.03,'d','p'
4.37,'d','p'
4.46,'d','p'
3.91,'d','p'
3.91,'d','p'
3.79,'d','p'
4.19,'d','p'
4.39,'d','p'
3.54,'d','p'
3.36,'d','p'
4.14,'d','p'
3.63,'d','p'
3.55,'d','p'
3.79,'d','p'
3.64,'d','p'
3.47,'d','p'
4.66,'d','p'
4.12,'d','p'
4.59,'d','p'
4.83,'d','p'
5.73,'d','p'
3.97,'d','p'
3.02,'d','p'
2.75,'d','p'
5.04,'d','p'
4.29,'d','p'
3.98,'d','p'
3.63,'d','p'
4.53,'d','p'
2.98,'d','p'
2.91,'d','p'
3.29,'d','p'
4.48,'d','p'
5.09,'d','p'
4.29,'d','p'
3.95,'d','p'
4.27,'d','p'
2.72,'d','p'
5.17,'d','p'
4.04,'d','p'
4.9,'d','p'
2.8,'d','p'
4.03,'d','p'
4.13,'d','p'
4.95,'d','p'
4.76,'d','p'
4.8,'d','p'
3.83,'d','p'
4.08,'d','p'
4.76,'d','p'
4.37,'d','p'
4.19,'d','p'
4.11,'d','p'
4.06,'d','p'
4.68,'d','p'
4.89,'d','p'
4.55,'d','p'
4.23,'d','p'
4.36,'d','p'
3.75,'d','p'
3.69,'d','p'
3.86,'d','p'
4.37,'d','p'
4.53,'d','p'
3.55,'d','p'
3.78,'d','p'
3.38,'d','p'
3.93,'d','p'
4.07,'d','p'
4.99,'d','p'
3.87,'d','p'
5.23,'d','p'
3.79,'d','p'
4.64,'d','p'
4.5,'d','p'
3.45,'d','p'
3.72,'d','p'
3.59,'d','p'
4.33,'d','p'
4.59,'d','p'
4.64,'d','p'
5.12,'d','p'
5.09,'d','p'
4.55,'d','p'
3.43,'d','p'
4.63,'d','p'
5.37,'d','p'
4.63,'d','p'
4.49,'d','p'
2.63,'d','p'
4.75,'d','p'
3.97,'d','p'
3.81,'d','p'
4.68,'d','p'
3.81,'d','p'
4.18,'d','p'
3.98,'d','p'
3.63,'d','p'
4.77,'d','p'
4.72,'d','p'
3.96,'d','p'
3.67,'d','p'
3.63,'d','p'
4.29,'d','p'
4.12,'d','p'
2.68,'d','p'
3.5,'d','p'
3.24,'d','p'
4.24,'d','p'
2.39,'d','p'
3.73,'d','p'
4.27,'d','p'
1.81,'d','p'
3.93,'d','p'
4.56,'d','p'
4.09,'d','p'
3.84,'d','p'
4.38,'d','p'
4.39,'d','p'
4.11,'d','p'
4.17,'d','p'
2.78,'d','p'
4.09,'d','p'
3.26,'d','p'
4.11,'d','p'
3.6,'d','p'
3.11,'d','p'
2.53,'d','p'
3.31,'d','p'
2.58,'d','p'
2.64,'d','p'
2.27,'d','p'
3.07,'d','p'
3.72,'d','p'
2.73,'d','p'
2.99,'d','p'
3.25,'d','p'
3.05,'d','p'
3.29,'d','p'
2.87,'d','p'
3.18,'d','p'
3.06,'d','p'
2.63,'d','p'
2.31,'d','p'
2.9,'d','p'
3.52,'d','p'
3.27,'d','p'
3.38,'d','p'
3.06,'d','p'
3.47,'d','p'
3.45,'d','p'
3.23,'d','p'
2.95,'d','p'
3.12,'d','p'
2.68,'d','p'
2.54,'d','p'
2.91,'d','p'
2.71,'d','p'
3,'d','p'
3.18,'d','p'
3.39,'d','p'
3.33,'d','p'
2.9,'d','p'
3.61,'d','p'
2.88,'d','p'
3.39,'d','p'
2.99,'d','p'
3.05,'d','p'
2.94,'d','p'
3.42,'d','p'
3.14,'d','p'
3.04,'d','p'
3.13,'d','p'
2.99,'d','p'
3.03,'d','p'
3.07,'d','p'
2.96,'d','p'
3.15,'d','p'
2.87,'d','p'
3.13,'d','p'
3.21,'d','p'
3.14,'d','p'
3.41,'d','p'
2.49,'d','p'
3.13,'d','p'
2.55,'d','p'
3.17,'d','p'
2.86,'d','p'
3.15,'d','p'
3.05,'d','p'
3.6,'d','p'
2.99,'d','p'
3.27,'d','p'
2.77,'d','p'
2.93,'d','p'
3.18,'d','p'
3.12,'d','p'
2.81,'d','p'
3.36,'d','p'
2.91,'d','p'
2.62,'d','p'
2.98,'d','p'
3.07,'d','p'
3.13,'d','p'
3.34,'d','p'
3.25,'d','p'
3.17,'d','p'
2.87,'d','p'
2.86,'d','p'
3.22,'d','p'
2.77,'d','p'
2.59,'d','p'
2.99,'d','p'
2.72,'d','p'
3.11,'d','p'
2.43,'d','p'
3.08,'d','p'
2.88,'d','p'
2.67,'d','p'
3.51,'d','p'
2.99,'d','p'
2.43,'d','p'
3.1,'d','p'
2.7,'d','p'
2.49,'d','p'
3.52,'d','p'
3.29,'d','p'
3.18,'d','p'
3.16,'d','p'
2.76,'d','p'
3.18,'d','p'
2.88,'d','p'
3.01,'d','p'
2.34,'d','p'
3.28,'d','p'
2.95,'d','p'
3.19,'d','p'
3.11,'d','p'
2.78,'d','p'
3.43,'d','p'
2.94,'d','p'
3.32,'d','p'
2.96,'d','p'
3.16,'d','p'
3.25,'d','p'
3.05,'d','p'
2.99,'d','p'
3.04,'d','p'
2.88,'d','p'
2.74,'d','p'
2.74,'d','p'
3.02,'d','p'
3.72,'d','p'
3.57,'d','p'
3.47,'d','p'
2.47,'d','p'
3.14,'d','p'
2.7,'d','p'
2.69,'d','p'
2.7,'d','p'
3.23,'d','p'
3.38,'d','p'
2.33,'d','p'
2.81,'d','p'
3.16,'d','p'
3.81,'d','p'
2.89,'d','p'
3.04,'d','p'
2.51,'d','p'
2.66,'d','p'
2.58,'d','p'
2.88,'d','p'
3.56,'d','p'
2.79,'d','p'
3.04,'d','p'
3.4,'d','p'
2.7,'d','p'
2.35,'d','p'
2.93,'d','p'
2.37,'d','p'
3.02,'d','p'
3.06,'d','p'
2.44,'d','p'
3.11,'d','p'
3.24,'d','p'
3.47,'d','p'
3.07,'d','p'
2.35,'d','p'
2.51,'d','p'
2.82,'d','p'
2.71,'d','p'
3.22,'d','p'
2.95,'d','p'
3.26,'d','p'
3.56,'d','p'
3.45,'d','p'
2.92,'d','p'
3.91,'d','p'
3.33,'d','p'
3.29,'d','p'
3.05,'d','p'
3.15,'d','p'
2.13,'d','p'
3.21,'d','p'
2.98,'d','p'
3.71,'d','p'
3.46,'d','p'
3.11,'d','p'
2.8,'d','p'
3.15,'d','p'
2.8,'d','p'
3.04,'d','p'
3.17,'d','p'
2.99,'d','p'
2.76,'d','p'
3.17,'d','p'
2.98,'d','p'
2.5,'d','p'
3.23,'d','p'
2.53,'d','p'
3.26,'d','p'
2.66,'d','p'
2.08,'d','p'
3.65,'d','p'
2.74,'d','p'
3.12,'d','p'
3.08,'d','p'
3.01,'d','p'
3.6,'d','p'
2.93,'d','p'
2.92,'d','p'
2.69,'d','p'
3.13,'d','p'
2.98,'d','p'
2.75,'d','p'
2.98,'d','p'
3.54,'d','p'
2.93,'d','p'
3.36,'d','p'
2.94,'d','p'
3.24,'d','p'
2.61,'d','p'
3.23,'d','p'
2.53,'d','p'
3.25,'d','p'
3.27,'d','p'
3.02,'d','p'
2.72,'d','p'
3.62,'d','p'
3.94,'d','p'
3.26,'d','p'
2.55,'d','p'
3.36,'d','p'
2.77,'d','p'
2.74,'d','p'
2.98,'d','p'
2.83,'d','p'
3.05,'d','p'
2.84,'d','p'
2.93,'d','p'
2.73,'d','p'
2.79,'d','p'
2.3,'d','p'
2.31,'d','p'
3.06,'d','p'
3.12,'d','p'
2.92,'d','p'
2.37,'d','p'
3.15,'d','p'
3.49,'d','p'
3.16,'d','p'
2.98,'d','p'
3.25,'d','p'
2.33,'d','p'
3.18,'d','p'
2.66,'d','p'
3.28,'d','p'
2.95,'d','p'
3.36,'d','p'
2.85,'d','p'
2.98,'d','p'
2.75,'d','p'
3.03,'d','p'
2.86,'d','p'
2.44,'d','p'
3.04,'d','p'
2.69,'d','p'
2.25,'d','p'
2.99,'d','p'
2.98,'d','p'
3.23,'d','p'
3.05,'d','p'
2.8,'d','p'
3.17,'d','p'
2.32,'d','p'
3.04,'d','p'
3.21,'d','p'
3.47,'d','p'
2.79,'d','p'
3.11,'d','p'
2.92,'d','p'
3.14,'d','p'
3.22,'d','p'
3.06,'d','p'
2.9,'d','p'
2.8,'d','p'
3.12,'d','p'
2.38,'d','p'
3.42,'d','p'
2.47,'d','p'
3.15,'d','p'
3.44,'d','p'
2.76,'d','p'
3.35,'d','p'
2.71,'d','p'
2.99,'d','p'
2.83,'d','p'
2.71,'d','p'
2.65,'d','p'
3.13,'d','p'
2.48,'d','p'
3.79,'d','p'
2.97,'d','p'
3.21,'d','p'
3.03,'d','p'
3.09,'d','p'
3.37,'d','p'
2.93,'d','p'
3.42,'d','p'
3.31,'d','p'
3.2,'d','p'
2.44,'d','p'
3.3,'d','p'
2.82,'d','p'
3.13,'d','p'
2.97,'d','p'
2.48,'d','p'
3.4,'d','p'
3.37,'d','p'
3.23,'d','p'
3.49,'d','p'
2.45,'d','p'
2.78,'d','p'
2.34,'d','p'
3.25,'d','p'
3.32,'d','p'
3.2,'d','p'
3.03,'d','p'
2.97,'d','p'
3.38,'d','p'
2.16,'d','p'
3.19,'d','p'
2.45,'d','p'
3.74,'d','p'
3.41,'d','p'
3.05,'d','p'
3.22,'d','p'
3.36,'d','p'
3.16,'d','p'
3.16,'d','p'
3.13,'d','p'
2.66,'d','p'
2.95,'d','p'
3.31,'d','p'
3.21,'d','p'
3,'d','p'
3.6,'d','p'
2.76,'d','p'
2.21,'d','p'
3.34,'d','p'
3.06,'d','p'
2.94,'d','p'
2.28,'d','p'
3.3,'d','p'
2.54,'d','p'
3.13,'d','p'
2.83,'d','p'
3.83,'d','p'
3.18,'d','p'
49.25,'d','e'
47.97,'d','e'
51.78,'d','e'
51.08,'d','e'
53.33,'d','e'
52.4,'d','e'
49.03,'d','e'
55.52,'d','e'
55.49,'d','e'
50.03,'d','e'
55.2,'d','e'
56.24,'d','e'
46.58,'d','e'
49.48,'d','e'
45.73,'d','e'
48.09,'d','e'
50.51,'d','e'
55.86,'d','e'
54.86,'d','e'
56.03,'d','e'
49.69,'d','e'
48.51,'d','e'
43.33,'d','e'
51.22,'d','e'
45.67,'d','e'
50.18,'d','e'
50.38,'d','e'
47.85,'d','e'
51.39,'d','e'
49.44,'d','e'
49.56,'d','e'
53.27,'d','e'
44.62,'d','e'
53.33,'d','e'
48.61,'d','e'
53.13,'d','e'
54.88,'d','e'
49.29,'d','e'
51.58,'d','e'
54.84,'d','e'
52.61,'d','e'
48.27,'d','e'
42.17,'d','e'
49.83,'d','e'
43.82,'d','e'
46.12,'d','e'
56.48,'d','e'
51.16,'d','e'
50.41,'d','e'
46.89,'d','e'
46.04,'d','e'
48.06,'d','e'
46.17,'d','e'
50.63,'d','e'
47.6,'d','e'
53.34,'d','e'
53.48,'d','e'
54.62,'d','e'
48.92,'d','e'
49.59,'d','e'
53.91,'d','e'
51.36,'d','e'
52.69,'d','e'
47.12,'d','e'
52.87,'d','e'
54.11,'d','e'
51.23,'d','e'
50.76,'d','e'
59.46,'d','e'
45.95,'d','e'
49.49,'d','e'
54.98,'d','e'
52.34,'d','e'
62.34,'d','e'
58.3,'d','e'
58.21,'d','e'
54.3,'d','e'
49.31,'d','e'
49.11,'d','e'
45.56,'d','e'
53.18,'d','e'
53.82,'d','e'
46.87,'d','e'
47.66,'d','e'
53.13,'d','e'
52.25,'d','e'
49.41,'d','e'
51.3,'d','e'
45.32,'d','e'
46.42,'d','e'
47.82,'d','e'
47.72,'d','e'
45.13,'d','e'
52.94,'d','e'
50.77,'d','e'
52.4,'d','e'
48.81,'d','e'
51.99,'d','e'
52.81,'d','e'
50.79,'d','e'
45.84,'d','e'
46.68,'d','e'
44.12,'d','e'
48.45,'d','e'
50.72,'d','e'
51.92,'d','e'
53.41,'d','e'
51.9,'d','e'
49.12,'d','e'
48.86,'d','e'
50.22,'d','e'
52,'d','e'
46.44,'d','e'
45.64,'d','e'
52.16,'d','e'
52.3,'d','e'
52.83,'d','e'
47.88,'d','e'
49.86,'d','e'
43.24,'d','e'
54.81,'d','e'
46,'d','e'
52.76,'d','e'
52.38,'d','e'
53.09,'d','e'
45.93,'d','e'
45.54,'d','e'
53.32,'d','e'
50.7,'d','e'
50.06,'d','e'
50.38,'d','e'
49.26,'d','e'
46.24,'d','e'
57.61,'d','e'
46.99,'d','e'
52.75,'d','e'
50.83,'d','e'
43.47,'d','e'
50.36,'d','e'
44.06,'d','e'
45.53,'d','e'
51.18,'d','e'
48.19,'d','e'
55.34,'d','e'
52.61,'d','e'
50.49,'d','e'
47.61,'d','e'
45.54,'d','e'
53.47,'d','e'
53.4,'d','e'
42.27,'d','e'
49.45,'d','e'
45.25,'d','e'
52.3,'d','e'
52.87,'d','e'
47.68,'d','e'
52.01,'d','e'
48.68,'d','e'
49.96,'d','e'
50.62,'d','e'
48.34,'d','e'
53.87,'d','e'
54.1,'d','e'
47.91,'d','e'
44.3,'d','e'
51.31,'d','e'
49.57,'d','e'
52.76,'d','e'
49.46,'d','e'
56.14,'d','e'
50.11,'d','e'
46.89,'d','e'
53.3,'d','e'
48.57,'d','e'
48.62,'d','e'
53.49,'d','e'
47,'d','e'
49.53,'d','e'
51.08,'d','e'
54.03,'d','e'
52.83,'d','e'
51.59,'d','e'
43.42,'d','e'
49.66,'d','e'
51.42,'d','e'
55.1,'d','e'
54.4,'d','e'
49.55,'d','e'
45.55,'d','e'
55.52,'d','e'
49.98,'d','e'
44.16,'d','e'
47.61,'d','e'
48.91,'d','e'
52.05,'d','e'
51.49,'d','e'
53.37,'d','e'
49.34,'d','e'
54.22,'d','e'
50.77,'d','e'
47.63,'d','e'
47.15,'d','e'
52.59,'d','e'
49.71,'d','e'
52.41,'d','e'
54.81,'d','e'
49.95,'d','e'
53.16,'d','e'
49.78,'d','e'
51.85,'d','e'
46.96,'d','e'
48.7,'d','e'
48.58,'d','e'
51.64,'d','e'
47.37,'d','e'
46.92,'d','e'
47.35,'d','e'
47.13,'d','e'
50.17,'d','e'
46.81,'d','e'
54.73,'d','e'
47,'d','e'
48.83,'d','e'
45.64,'d','e'
51.52,'d','e'
49.32,'d','e'
46.26,'d','e'
47.56,'d','e'
54.35,'d','e'
51.81,'d','e'
53.09,'d','e'
50.6,'d','e'
47.3,'d','e'
53.26,'d','e'
52.77,'d','e'
57.4,'d','e'
52.3,'d','e'
49.16,'d','e'
52.22,'d','e'
53.66,'d','e'
43.6,'d','e'
53.83,'d','e'
57.76,'d','e'
44.76,'d','e'
48.63,'d','e'
43.24,'d','e'
58.11,'d','e'
50.46,'d','e'
50.67,'d','e'
54.74,'d','e'
48.47,'d','e'
51.66,'d','e'
53.38,'d','e'
55.36,'d','e'
54.59,'d','e'
53.81,'d','e'
49.65,'d','e'
55.16,'d','e'
40.15,'d','e'
44.93,'d','e'
52.12,'d','e'
53.57,'d','e'
57.08,'d','e'
50.57,'d','e'
52.72,'d','e'
52.25,'d','e'
46.45,'d','e'
53.46,'d','e'
52.43,'d','e'
43.08,'d','e'
43.7,'d','e'
44.85,'d','e'
51.59,'d','e'
38.79,'d','e'
53.44,'d','e'
52.68,'d','e'
56.72,'d','e'
47.33,'d','e'
48.61,'d','e'
42.28,'d','e'
57.98,'d','e'
41.91,'d','e'
52.05,'d','e'
54.95,'d','e'
54.13,'d','e'
44.01,'d','e'
46.33,'d','e'
51.29,'d','e'
48.71,'d','e'
52.31,'d','e'
47.37,'d','e'
48.63,'d','e'
52.73,'d','e'
50.27,'d','e'
51.27,'d','e'
51.44,'d','e'
55.73,'d','e'
52.12,'d','e'
48.21,'d','e'
55.94,'d','e'
52.93,'d','e'
40.02,'d','e'
53.48,'d','e'
46.12,'d','e'
56,'d','e'
46.67,'d','e'
47.51,'d','e'
48.31,'d','e'
50.51,'d','e'
44.43,'d','e'
45.89,'d','e'
53.72,'d','e'
48.08,'d','e'
51.88,'d','e'
50.28,'d','e'
53.73,'d','e'
50.99,'d','e'
54.25,'d','e'
48.76,'d','e'
57.51,'d','e'
51.27,'d','e'
47.63,'d','e'
46.92,'d','e'
47.84,'d','e'
51.3,'d','e'
52.02,'d','e'
58.89,'d','e'
53.52,'d','e'
52.53,'d','e'
47.67,'d','e'
48.75,'d','e'
44.98,'d','e'
51.02,'d','e'
39.76,'d','e'
55.39,'d','e'
54.23,'d','e'
54.6,'d','e'
45.78,'d','e'
39.79,'d','e'
52.09,'d','e'
49.93,'d','e'
52.32,'d','e'
51.21,'d','e'
54.27,'d','e'
46.61,'d','e'
50.56,'d','e'
56.24,'d','e'
54.64,'d','e'
46.29,'d','e'
52.19,'d','e'
51.45,'d','e'
46.24,'d','e'
55.11,'d','e'
22.68,'d','p'
14.79,'d','p'
9.72,'d','p'
23.62,'d','p'
22.36,'d','p'
21.3,'d','p'
24.2,'d','p'
17.99,'d','p'
13.56,'d','p'
18.95,'d','p'
23.4,'d','p'
20.98,'d','p'
15.84,'d','p'
19.1,'d','p'
17.17,'d','p'
19.59,'d','p'
16.14,'d','p'
17.45,'d','p'
29.69,'d','p'
20.01,'d','p'
21.68,'d','p'
21.91,'d','p'
18.85,'d','p'
15.76,'d','p'
20.97,'d','p'
20.7,'d','p'
14.41,'d','p'
26.02,'d','p'
18.65,'d','p'
20.43,'d','p'
26.59,'d','p'
14.01,'d','p'
23.08,'d','p'
18.8,'d','p'
16.46,'d','p'
26.9,'d','p'
19.5,'d','p'
21.94,'d','p'
23.51,'d','p'
12.71,'d','p'
13.59,'d','p'
24.86,'d','p'
24.25,'d','p'
19.2,'d','p'
24.97,'d','p'
19.08,'d','p'
21.31,'d','p'
15.96,'d','p'
15.47,'d','p'
18.85,'d','p'
19.34,'d','p'
19.9,'d','p'
16.12,'d','p'
15.02,'d','p'
18.98,'d','p'
15.45,'d','p'
13.73,'d','p'
20.61,'d','p'
16.68,'d','p'
18.84,'d','p'
12.63,'d','p'
14.09,'d','p'
21.51,'d','p'
28.13,'d','p'
19.75,'d','p'
12.05,'d','p'
14.81,'d','p'
18.37,'d','p'
14.69,'d','p'
22.65,'d','p'
19.78,'d','p'
19.32,'d','p'
21.89,'d','p'
22.15,'d','p'
19.88,'d','p'
17.4,'d','p'
15.58,'d','p'
13.17,'d','p'
11.86,'d','p'
15.61,'d','p'
21.29,'d','p'
21.64,'d','p'
16.47,'d','p'
19.93,'d','p'
13.55,'d','p'
20.14,'d','p'
26.73,'d','p'
20.36,'d','p'
14.93,'d','p'
16.19,'d','p'
14.37,'d','p'
11.5,'d','p'
16.37,'d','p'
13.74,'d','p'
17.64,'d','p'
19.95,'d','p'
21.92,'d','p'
14.16,'d','p'
27.55,'d','p'
17.7,'d','p'
18.04,'d','p'
20.55,'d','p'
22.63,'d','p'
20.32,'d','p'
23.52,'d','p'
25.98,'d','p'
18.8,'d','p'
20.75,'d','p'
17.8,'d','p'
17.26,'d','p'
19.83,'d','p'
18,'d','p'
22.97,'d','p'
18.55,'d','p'
16.44,'d','p'
19.79,'d','p'
28.95,'d','p'
24.37,'d','p'
19.26,'d','p'
21.43,'d','p'
16.65,'d','p'
26.96,'d','p'
14.26,'d','p'
17.09,'d','p'
22.34,'d','p'
18.38,'d','p'
19.27,'d','p'
19.72,'d','p'
20.04,'d','p'
24.12,'d','p'
18.24,'d','p'
15.93,'d','p'
21.29,'d','p'
11.23,'d','p'
18.77,'d','p'
17.96,'d','p'
23.39,'d','p'
14.66,'d','p'
15.6,'d','p'
13.65,'d','p'
24.38,'d','p'
14.75,'d','p'
18.83,'d','p'
18.51,'d','p'
20.89,'d','p'
22.53,'d','p'
18.29,'d','p'
22.66,'d','p'
20.87,'d','p'
14.63,'d','p'
23.1,'d','p'
22.6,'d','p'
23.95,'d','p'
17.27,'d','p'
14.7,'d','p'
19.71,'d','p'
11.43,'d','p'
15.62,'d','p'
22.92,'d','p'
19.59,'d','p'
17.18,'d','p'
27.58,'d','p'
22.97,'d','p'
21.97,'d','p'
20.01,'d','p'
17.28,'d','p'
15.69,'d','p'
13.66,'d','p'
17.82,'d','p'
20.32,'d','p'
21.76,'d','p'
15.5,'d','p'
22.06,'d','p'
19.61,'d','p'
27.07,'d','p'
22.61,'d','p'
19.64,'d','p'
21.62,'d','p'
18.83,'d','p'
17.34,'d','p'
21.29,'d','p'
18.59,'d','p'
15.85,'d','p'
17.92,'d','p'
21.94,'d','p'
17.6,'d','p'
13.37,'d','p'
21.49,'d','p'
22.32,'d','p'
24.67,'d','p'
15.48,'d','p'
23.37,'d','p'
22.79,'d','p'
11.32,'d','p'
21.96,'d','p'
26.17,'d','p'
16.3,'d','p'
17.85,'d','p'
19.19,'d','p'
16.32,'d','p'
14.18,'d','p'
23.14,'d','p'
18.79,'d','p'
22.05,'d','p'
22.26,'d','p'
17.91,'d','p'
23.52,'d','p'
17.33,'d','p'
16.56,'d','p'
15.84,'d','p'
26.41,'d','p'
18.25,'d','p'
22.41,'d','p'
22.53,'d','p'
23.05,'d','p'
14.34,'d','p'
14.12,'d','p'
24.32,'d','p'
19.51,'d','p'
16.1,'d','p'
19.88,'d','p'
26.72,'d','p'
26.29,'d','p'
14.67,'d','p'
19.49,'d','p'
14.35,'d','p'
17.26,'d','p'
21.02,'d','p'
25.89,'d','p'
15.8,'d','p'
23.15,'d','p'
21.64,'d','p'
18.37,'d','p'
18.46,'d','p'
18.42,'d','p'
22.43,'d','p'
22.61,'d','p'
18.54,'d','p'
18.99,'d','p'
19.03,'d','p'
17.9,'d','p'
13.11,'d','p'
13.06,'d','p'
17.12,'d','p'
18.82,'d','p'
19.03,'d','p'
17.26,'d','p'
24.5,'d','p'
18.58,'d','p'
17.55,'d','p'
19.65,'d','p'
17.14,'d','p'
19.09,'d','p'
23.04,'d','p'
17.06,'d','p'
20.14,'d','p'
21.66,'d','p'
22.69,'d','p'
21.66,'d','p'
23.16,'d','p'
24.33,'d','p'
21.97,'d','p'
19.67,'d','p'
25.61,'d','p'
23.71,'d','p'
25.82,'d','p'
24.82,'d','p'
22.7,'d','p'
13.39,'d','p'
20.02,'d','p'
12.55,'d','p'
16.1,'d','p'
15.61,'d','p'
15.34,'d','p'
15.95,'d','p'
17.08,'d','p'
22.34,'d','p'
13.24,'d','p'
24.7,'d','p'
17.5,'d','p'
21.39,'d','p'
14.22,'d','p'
21.43,'d','p'
26.37,'d','p'
20.16,'d','p'
20.66,'d','p'
19.67,'d','p'
16.62,'d','p'
23.1,'d','p'
17.37,'d','p'
17.49,'d','p'
18.63,'d','p'
20.64,'d','p'
19.38,'d','p'
21.51,'d','p'
22.84,'d','p'
13.84,'d','p'
24.96,'d','p'
19.98,'d','p'
19.32,'d','p'
19.24,'d','p'
22.48,'d','p'
22.13,'d','p'
20.19,'d','p'
23.41,'d','p'
24.98,'d','p'
17.66,'d','p'
21.73,'d','p'
30.34,'d','p'
20.94,'d','p'
22.92,'d','p'
21.72,'d','p'
12.07,'d','p'
17.1,'d','p'
17.75,'d','p'
18.07,'d','p'
18.8,'d','p'
22.9,'d','p'
15.67,'d','p'
23.74,'d','p'
20.92,'d','p'
21.25,'d','p'
12.65,'d','p'
20.55,'d','p'
21.76,'d','p'
18.51,'d','p'
22.7,'d','p'
19.37,'d','p'
17.68,'d','p'
19.01,'d','p'
22.85,'d','p'
21.05,'d','p'
14.53,'d','p'
17.38,'d','p'
18.72,'d','p'
15.56,'d','p'
21.89,'d','p'
23.42,'d','p'
18.98,'d','p'
17.46,'d','p'
19.51,'d','p'
19.93,'d','p'
14.37,'d','p'
18.4,'d','p'
17.92,'d','p'
20.64,'d','p'
14.3,'d','p'
21.8,'d','p'
20.42,'d','p'
24.19,'d','p'
16.82,'d','p'
22.71,'d','p'
19.74,'d','p'
4.9,'d','p'
5.05,'d','p'
4.45,'d','p'
5.76,'d','p'
5.41,'d','p'
5.24,'d','p'
5.13,'d','p'
4.17,'d','p'
4.47,'d','p'
5.36,'d','p'
5.94,'d','p'
4.96,'d','p'
6.15,'d','p'
4.08,'d','p'
5.4,'d','p'
5.51,'d','p'
4.71,'d','p'
5.06,'d','p'
5.23,'d','p'
4.49,'d','p'
3.85,'d','p'
4.49,'d','p'
4.65,'d','p'
4.35,'d','p'
5.31,'d','p'
4.5,'d','p'
5,'d','p'
5.54,'d','p'
5.12,'d','p'
4.76,'d','p'
4.71,'d','p'
5.24,'d','p'
7.01,'d','p'
4.53,'d','p'
4.66,'d','p'
5.71,'d','p'
4.33,'d','p'
4.55,'d','p'
5.13,'d','p'
4.03,'d','p'
4.33,'d','p'
4.28,'d','p'
4.59,'d','p'
5.52,'d','p'
4.65,'d','p'
4.99,'d','p'
5.76,'d','p'
4.11,'d','p'
3.78,'d','p'
4.46,'d','p'
6.04,'d','p'
5.64,'d','p'
5.76,'d','p'
4.86,'d','p'
5.79,'d','p'
4.12,'d','p'
4.13,'d','p'
5.8,'d','p'
4.28,'d','p'
5.46,'d','p'
5.77,'d','p'
4.57,'d','p'
6.08,'d','p'
5.43,'d','p'
4.59,'d','p'
5.21,'d','p'
6.42,'d','p'
4.82,'d','p'
5.66,'d','p'
5.46,'d','p'
5.22,'d','p'
5.03,'d','p'
5.81,'d','p'
5.22,'d','p'
4.61,'d','p'
3.9,'d','p'
5.54,'d','p'
4.67,'d','p'
4.12,'d','p'
5.2,'d','p'
5.07,'d','p'
5.72,'d','p'
5.35,'d','p'
6.04,'d','p'
3.73,'d','p'
5.83,'d','p'
5.08,'d','p'
4.99,'d','p'
5.86,'d','p'
5.17,'d','p'
5.23,'d','p'
5.45,'d','p'
4.43,'d','p'
4.51,'d','p'
3.98,'d','p'
5.63,'d','p'
4.17,'d','p'
6.35,'d','p'
5.09,'d','p'
4.81,'d','p'
6.03,'d','p'
5.19,'d','p'
4.94,'d','p'
4.78,'d','p'
4.88,'d','p'
5.31,'d','p'
5.99,'d','p'
5.04,'d','p'
5.55,'d','p'
4.74,'d','p'
5.51,'d','p'
5.1,'d','p'
4.48,'d','p'
3.99,'d','p'
5.43,'d','p'
4.96,'d','p'
4.39,'d','p'
6.75,'d','p'
5.58,'d','p'
6.63,'d','p'
5.95,'d','p'
4.84,'d','p'
4.21,'d','p'
5.67,'d','p'
4.07,'d','p'
5.21,'d','p'
3.98,'d','p'
4.88,'d','p'
4.22,'d','p'
4.48,'d','p'
5.94,'d','p'
4.9,'d','p'
5.24,'d','p'
4.81,'d','p'
5.9,'d','p'
5.37,'d','p'
4.1,'d','p'
5.37,'d','p'
4.33,'d','p'
5.22,'d','p'
6.06,'d','p'
5.33,'d','p'
4.86,'d','p'
4.69,'d','p'
5.23,'d','p'
4.6,'d','p'
5.37,'d','p'
4.18,'d','p'
4.99,'d','p'
5.13,'d','p'
4.5,'d','p'
5.6,'d','p'
5,'d','p'
4.75,'d','p'
5.12,'d','p'
6.04,'d','p'
5.67,'d','p'
4.52,'d','p'
4.26,'d','p'
5.9,'d','p'
5,'d','p'
6.35,'d','p'
4.49,'d','p'
4.52,'d','p'
6.27,'d','p'
4.54,'d','p'
4.88,'d','p'
5.58,'d','p'
4.47,'d','p'
4.97,'d','p'
5.75,'d','p'
5.02,'d','p'
4.79,'d','p'
3.93,'d','p'
5.26,'d','p'
4.28,'d','p'
5.51,'d','p'
5.29,'d','p'
5.58,'d','p'
5.45,'d','p'
6.07,'d','p'
3.39,'d','p'
5.17,'d','p'
4.24,'d','p'
6.37,'d','p'
4.72,'d','p'
6.08,'d','p'
5.03,'d','p'
4.59,'d','p'
3.61,'d','p'
4.08,'d','p'
6.37,'d','p'
4.99,'d','p'
4.24,'d','p'
5.11,'d','p'
5.46,'d','p'
5.4,'d','p'
3.57,'d','p'
5.05,'d','p'
4.8,'d','p'
4.88,'d','p'
5.08,'d','p'
5.12,'d','p'
5.52,'d','p'
5.54,'d','p'
5.82,'d','p'
6.28,'d','p'
5.56,'d','p'
6.1,'d','p'
4.96,'d','p'
5.34,'d','p'
3.87,'d','p'
5.1,'d','p'
4.4,'d','p'
4.64,'d','p'
3.83,'d','p'
5.38,'d','p'
5.35,'d','p'
4.53,'d','p'
5.27,'d','p'
4.86,'d','p'
5.32,'d','p'
5.14,'d','p'
5.59,'d','p'
4.64,'d','p'
4.48,'d','p'
5.22,'d','p'
5.44,'d','p'
4.01,'d','p'
4.31,'d','p'
4.17,'d','p'
6.08,'d','p'
5.29,'d','p'
6.24,'d','p'
4.77,'d','p'
5.88,'d','p'
4.28,'d','p'
5.97,'d','p'
4.3,'d','p'
5.2,'d','p'
4.55,'d','p'
4.99,'d','p'
6.37,'d','p'
3.83,'d','p'
4.64,'d','p'
5.48,'d','p'
4.93,'d','p'
5.08,'d','p'
5.02,'d','p'
3.69,'d','p'
4.19,'d','p'
5.3,'d','p'
4.73,'d','p'
4.45,'d','p'
5.76,'d','p'
5.37,'d','p'
5.5,'d','p'
5.28,'d','p'
5,'d','p'
4.29,'d','p'
5.77,'d','p'
4.6,'d','p'
4.91,'d','p'
5.4,'d','p'
5.58,'d','p'
5.65,'d','p'
5.35,'d','p'
4.62,'d','p'
5.15,'d','p'
3.88,'d','p'
5.66,'d','p'
5.75,'d','p'
4.91,'d','p'
5.02,'d','p'
5.18,'d','p'
5.9,'d','p'
4.91,'d','p'
6.12,'d','p'
5.18,'d','p'
4.93,'d','p'
4.15,'d','p'
6.33,'d','p'
4.93,'d','p'
3.89,'d','p'
5.54,'d','p'
4.88,'d','p'
5.42,'d','p'
4.69,'d','p'
4.72,'d','p'
4.02,'d','p'
4.88,'d','p'
4.7,'d','p'
4.42,'d','p'
3.91,'d','p'
5.32,'d','p'
3.7,'d','p'
5.9,'d','p'
5.34,'d','p'
6.63,'d','p'
4.6,'d','p'
5.36,'d','p'
5.61,'d','p'
5.73,'d','p'
5.81,'d','p'
4.99,'d','p'
5.68,'d','p'
3.47,'d','p'
5.53,'d','p'
5.86,'d','p'
4.45,'d','p'
4.89,'d','p'
4.19,'d','p'
4.56,'d','p'
5.55,'d','p'
4.64,'d','p'
4,'d','p'
5.38,'d','p'
4.29,'d','p'
3.59,'d','p'
4.91,'d','p'
4.79,'d','p'
5.1,'d','p'
4.61,'d','p'
5.09,'d','p'
5.86,'d','p'
5.09,'d','p'
6.4,'d','p'
6.12,'d','p'
5.89,'d','p'
5.18,'d','p'
4.97,'d','p'
5.06,'d','p'
3.82,'d','p'
4.22,'d','p'
4.67,'d','p'
5.78,'d','p'
3.73,'d','p'
4.99,'d','p'
4.84,'d','p'
5.05,'d','p'
6.21,'d','p'
4.27,'d','p'
5.4,'d','p'
5.75,'d','p'
5.45,'d','p'
4.06,'d','p'
4.39,'d','p'
4.39,'d','p'
6.53,'d','p'
5.79,'d','p'
4.46,'d','p'
5.53,'d','p'
5.04,'d','p'
5.46,'d','p'
3.78,'d','p'
2.59,'d','p'
4.06,'d','p'
3.33,'p','p'
4.94,'d','p'
2.81,'p','p'
4.16,'d','p'
3.22,'d','p'
3.39,'d','p'
4.13,'p','p'
4.33,'p','p'
2.96,'p','p'
4.79,'d','p'
3.28,'d','p'
4.85,'p','p'
3.99,'d','p'
3.55,'p','p'
3.65,'p','p'
4.65,'d','p'
4.35,'p','p'
4.11,'d','p'
3.07,'d','p'
4.08,'d','p'
3.88,'d','p'
5.06,'d','p'
4.27,'d','p'
4.01,'d','p'
3.77,'d','p'
4.31,'p','p'
4.92,'p','p'
4.86,'d','p'
3.51,'p','p'
4.28,'d','p'
4.12,'p','p'
4.36,'d','p'
3.55,'p','p'
5.12,'p','p'
4.68,'d','p'
3.95,'p','p'
3.5,'p','p'
4.1,'p','p'
4.74,'d','p'
4.42,'d','p'
4.39,'d','p'
3.42,'d','p'
4.45,'d','p'
2.84,'p','p'
3.04,'d','p'
4.43,'p','p'
4.35,'d','p'
3.75,'d','p'
5.18,'d','p'
3.34,'d','p'
5.11,'d','p'
3.63,'p','p'
4.15,'d','p'
4.78,'d','p'
3.21,'p','p'
3.81,'d','p'
3.87,'d','p'
3.82,'d','p'
5.58,'p','p'
3.81,'d','p'
3.44,'d','p'
4.33,'p','p'
3.27,'d','p'
3.63,'p','p'
3.69,'d','p'
3.82,'d','p'
4.33,'d','p'
3.65,'p','p'
4.41,'d','p'
4.24,'p','p'
3.72,'d','p'
3.56,'p','p'
3.84,'p','p'
3.67,'p','p'
4.79,'p','p'
4,'p','p'
4.27,'d','p'
3.07,'p','p'
4.01,'p','p'
3.18,'p','p'
3.02,'d','p'
5.33,'p','p'
4.74,'p','p'
3.69,'p','p'
3.86,'d','p'
4.51,'d','p'
4.4,'d','p'
4.4,'d','p'
4.19,'p','p'
3.06,'d','p'
4.28,'d','p'
5.43,'d','p'
2.75,'p','p'
4.21,'p','p'
4.02,'p','p'
4.48,'d','p'
4.96,'p','p'
4.66,'d','p'
3.62,'d','p'
3.97,'p','p'
4.36,'d','p'
4.32,'p','p'
3.24,'p','p'
3.09,'p','p'
5.4,'d','p'
5.05,'d','p'
4.05,'p','p'
4.76,'p','p'
4.11,'p','p'
4.46,'d','p'
5.35,'d','p'
4.16,'d','p'
4.36,'p','p'
4.63,'p','p'
3.41,'p','p'
3.49,'p','p'
2.81,'d','p'
3.57,'p','p'
3.59,'p','p'
4.11,'d','p'
5.12,'d','p'
4.36,'p','p'
3.71,'d','p'
4,'d','p'
3,'d','p'
4.17,'p','p'
3.57,'d','p'
3.76,'p','p'
5.09,'p','p'
3.39,'p','p'
4.28,'p','p'
5.38,'d','p'
4.54,'d','p'
3.06,'p','p'
3.75,'d','p'
3.66,'p','p'
3.11,'d','p'
3.64,'d','p'
4.37,'p','p'
4.69,'d','p'
3.58,'p','p'
5.01,'d','p'
2.46,'d','p'
3.66,'p','p'
4.26,'p','p'
3.33,'d','p'
4.11,'d','p'
4.14,'p','p'
4.02,'d','p'
3.91,'d','p'
5.66,'d','p'
4.1,'d','p'
4.05,'d','p'
3.01,'p','p'
2.14,'d','p'
4.07,'p','p'
4.33,'p','p'
2.87,'d','p'
4.05,'d','p'
3.88,'d','p'
4.39,'d','p'
4.72,'d','p'
4.04,'p','p'
3.88,'d','p'
3.8,'d','p'
4.15,'p','p'
5.18,'p','p'
2.71,'p','p'
3.85,'p','p'
4.22,'d','p'
3.03,'d','p'
4.48,'p','p'
2.85,'d','p'
4.63,'d','p'
3.91,'p','p'
3.9,'p','p'
4.01,'d','p'
4.22,'p','p'
3.88,'p','p'
4.78,'d','p'
3.25,'d','p'
4.68,'p','p'
3.77,'p','p'
3.96,'p','p'
4.11,'p','p'
4.1,'p','p'
4.01,'d','p'
4.48,'p','p'
4.24,'d','p'
3.32,'d','p'
5.07,'p','p'
5.17,'d','p'
4.47,'p','p'
3.91,'d','p'
3.66,'p','p'
3.49,'p','p'
4.66,'p','p'
3.72,'d','p'
3.82,'d','p'
5.15,'p','p'
3.37,'p','p'
3.78,'d','p'
4.88,'p','p'
3.11,'p','p'
4.18,'p','p'
4.27,'d','p'
4.12,'p','p'
3.8,'d','p'
3.82,'d','p'
2.88,'d','p'
3.15,'p','p'
3.92,'p','p'
3.05,'p','p'
2.72,'p','p'
5.25,'d','p'
5.44,'d','p'
4.05,'p','p'
3.48,'p','p'
4.67,'d','p'
4.22,'p','p'
2.82,'d','p'
4.55,'p','p'
3.37,'d','p'
3.07,'d','p'
2.87,'d','p'
3.4,'d','p'
4.34,'d','p'
3.7,'p','p'
4.78,'d','p'
3.88,'d','p'
4.78,'p','p'
5.22,'p','p'
2.43,'d','p'
3.73,'d','p'
4.65,'d','p'
3.81,'p','p'
2.52,'d','p'
5.16,'p','p'
3.71,'d','p'
4.15,'p','p'
4.12,'d','p'
4.4,'p','p'
5.05,'p','p'
4.36,'d','p'
4.11,'p','p'
3.32,'p','p'
4.32,'d','p'
3.71,'d','p'
4.9,'p','p'
4.3,'p','p'
3.54,'p','p'
4.68,'p','p'
3.55,'d','p'
2.24,'d','p'
3.66,'p','p'
4.12,'p','p'
3.84,'p','p'
4.2,'p','p'
3.78,'d','p'
5.02,'d','p'
4.53,'p','p'
3.57,'p','p'
3.88,'d','p'
2.65,'d','p'
3.59,'d','p'
3.85,'d','p'
3.72,'p','p'
3.95,'p','p'
4.1,'p','p'
3.74,'d','p'
5.33,'p','p'
3.8,'d','p'
3.61,'p','p'
4.04,'p','p'
4.33,'p','p'
3.79,'p','p'
4.09,'d','p'
4.18,'p','p'
3.79,'p','p'
3.52,'p','p'
5.29,'d','p'
3.74,'p','p'
3.97,'p','p'
5.63,'p','p'
4.71,'p','p'
4.03,'d','p'
4.74,'d','p'
3.97,'p','p'
4.94,'d','p'
3.25,'d','p'
4.77,'d','p'
3.27,'d','p'
3.92,'p','p'
4.84,'p','p'
4.73,'p','p'
4.28,'p','p'
3.97,'d','p'
3.7,'p','p'
3.87,'p','p'
4.04,'d','p'
4.1,'p','p'
3.46,'d','p'
3.78,'p','p'
3.46,'p','p'
4.5,'p','p'
4.02,'d','p'
3.67,'d','p'
4.3,'p','p'
4.63,'d','p'
2.49,'p','p'
4.89,'d','p'
4.99,'p','p'
3.34,'p','p'
3.2,'p','p'
3.28,'d','p'
4.5,'d','p'
4.42,'p','p'
3.85,'d','p'
3.93,'d','p'
4.07,'p','p'
3.41,'p','p'
5.6,'d','p'
3.61,'d','p'
4.91,'d','p'
3.02,'d','p'
2.05,'d','p'
4.61,'p','p'
4.21,'p','p'
4.43,'p','p'
2.82,'d','p'
4.23,'d','p'
3.89,'p','p'
4.22,'p','p'
3.14,'p','p'
3.33,'p','p'
3.85,'p','p'
3,'p','p'
3.97,'d','p'
4.57,'d','p'
4.91,'d','p'
3.63,'d','p'
2.84,'p','p'
4.03,'p','p'
4.86,'d','p'
4.52,'p','p'
3.11,'p','p'
5.26,'p','p'
4.39,'d','p'
3.59,'d','p'
3.03,'d','p'
3.33,'d','p'
3.08,'d','p'
3.17,'d','p'
2.39,'d','p'
3.01,'d','p'
3.61,'d','p'
2.62,'d','p'
3.13,'d','p'
3.53,'d','p'
2.8,'d','p'
3.08,'d','p'
2.84,'d','p'
2.7,'d','p'
3,'d','p'
3.39,'d','p'
3.12,'d','p'
3.41,'d','p'
2.59,'d','p'
2.68,'d','p'
2.19,'d','p'
2.7,'d','p'
3.18,'d','p'
2.49,'d','p'
3.02,'d','p'
2.64,'d','p'
3.1,'d','p'
3.01,'d','p'
2.86,'d','p'
3.22,'d','p'
3.87,'d','p'
3.51,'d','p'
3.09,'d','p'
3.31,'d','p'
3.68,'d','p'
3.13,'d','p'
3.13,'d','p'
3.1,'d','p'
3.34,'d','p'
3.98,'d','p'
2.46,'d','p'
2.74,'d','p'
3.2,'d','p'
3,'d','p'
3.03,'d','p'
2.9,'d','p'
2.84,'d','p'
2.68,'d','p'
3.59,'d','p'
2.48,'d','p'
2.85,'d','p'
2.78,'d','p'
2.87,'d','p'
2.83,'d','p'
2.94,'d','p'
2.99,'d','p'
2.71,'d','p'
3.13,'d','p'
2.83,'d','p'
2.84,'d','p'
3.24,'d','p'
2.33,'d','p'
2.26,'d','p'
3.03,'d','p'
3.02,'d','p'
2.51,'d','p'
3.03,'d','p'
3,'d','p'
2.6,'d','p'
2.84,'d','p'
2.71,'d','p'
3.34,'d','p'
3,'d','p'
2.71,'d','p'
2.98,'d','p'
2.74,'d','p'
3.27,'d','p'
3.01,'d','p'
3.41,'d','p'
3.23,'d','p'
3.22,'d','p'
3.34,'d','p'
3.69,'d','p'
2.74,'d','p'
2.85,'d','p'
2.77,'d','p'
2.8,'d','p'
3.32,'d','p'
2.82,'d','p'
2.95,'d','p'
3.22,'d','p'
2.87,'d','p'
2.75,'d','p'
3.02,'d','p'
2.88,'d','p'
3.39,'d','p'
3.54,'d','p'
2.2,'d','p'
2.98,'d','p'
2.97,'d','p'
3.42,'d','p'
3.6,'d','p'
2.78,'d','p'
3.13,'d','p'
3.02,'d','p'
2.92,'d','p'
3,'d','p'
3.2,'d','p'
2.85,'d','p'
3.26,'d','p'
2.58,'d','p'
3.24,'d','p'
2.77,'d','p'
2.16,'d','p'
2.73,'d','p'
2.94,'d','p'
2.62,'d','p'
2.89,'d','p'
2.72,'d','p'
2.14,'d','p'
2.58,'d','p'
3.02,'d','p'
2.99,'d','p'
3.71,'d','p'
3.12,'d','p'
2.76,'d','p'
3.03,'d','p'
2.85,'d','p'
2.74,'d','p'
2.72,'d','p'
3.14,'d','p'
2.86,'d','p'
2.52,'d','p'
3.25,'d','p'
3.11,'d','p'
3.05,'d','p'
3.24,'d','p'
2.91,'d','p'
2.35,'d','p'
3.35,'d','p'
3.13,'d','p'
2.89,'d','p'
3.31,'d','p'
3,'d','p'
2.85,'d','p'
2.94,'d','p'
3.18,'d','p'
3.48,'d','p'
3.47,'d','p'
3.03,'d','p'
2.56,'d','p'
3.17,'d','p'
2.93,'d','p'
3.77,'d','p'
2.92,'d','p'
3.32,'d','p'
3.67,'d','p'
2.73,'d','p'
3.35,'d','p'
2.78,'d','p'
2.81,'d','p'
3.23,'d','p'
3.15,'d','p'
3.06,'d','p'
2.98,'d','p'
2.63,'d','p'
2.69,'d','p'
2.57,'d','p'
2.77,'d','p'
3.13,'d','p'
2.98,'d','p'
2.73,'d','p'
2.64,'d','p'
2.58,'d','p'
2.78,'d','p'
3.4,'d','p'
3.11,'d','p'
2.58,'d','p'
3.42,'d','p'
2.95,'d','p'
3.06,'d','p'
3.22,'d','p'
3.28,'d','p'
3.68,'d','p'
3.05,'d','p'
2.96,'d','p'
3.16,'d','p'
2.56,'d','p'
3.16,'d','p'
2.67,'d','p'
3.15,'d','p'
3.01,'d','p'
3.48,'d','p'
3.05,'d','p'
3.31,'d','p'
2.95,'d','p'
3.16,'d','p'
2.98,'d','p'
3.17,'d','p'
3.44,'d','p'
3.19,'d','p'
3.13,'d','p'
2.59,'d','p'
2.42,'d','p'
2.93,'d','p'
3.03,'d','p'
2.37,'d','p'
3.22,'d','p'
2.8,'d','p'
3.25,'d','p'
2.98,'d','p'
2.96,'d','p'
3.59,'d','p'
2.42,'d','p'
3.19,'d','p'
3.42,'d','p'
3.06,'d','p'
2.74,'d','p'
3.31,'d','p'
3.34,'d','p'
2.19,'d','p'
2.1,'d','p'
2.58,'d','p'
2.98,'d','p'
3.22,'d','p'
2.39,'d','p'
2.76,'d','p'
2.95,'d','p'
3.25,'d','p'
3.6,'d','p'
3.44,'d','p'
3.02,'d','p'
3.75,'d','p'
3.41,'d','p'
3.18,'d','p'
2.99,'d','p'
2.94,'d','p'
2.64,'d','p'
2.76,'d','p'
2.99,'d','p'
3.31,'d','p'
2.8,'d','p'
3.18,'d','p'
2.93,'d','p'
3.02,'d','p'
2.54,'d','p'
2.9,'d','p'
3.08,'d','p'
3.64,'d','p'
2.94,'d','p'
3.29,'d','p'
2.62,'d','p'
3.71,'d','p'
3.43,'d','p'
3.38,'d','p'
3.24,'d','p'
3.07,'d','p'
2.57,'d','p'
2.96,'d','p'
3.53,'d','p'
3.5,'d','p'
2.39,'d','p'
2.45,'d','p'
2.83,'d','p'
2.65,'d','p'
2.63,'d','p'
3.04,'d','p'
2.94,'d','p'
3.18,'d','p'
2.5,'d','p'
3.2,'d','p'
2.97,'d','p'
3.18,'d','p'
3.02,'d','p'
3.07,'d','p'
2.8,'d','p'
2.72,'d','p'
2.57,'d','p'
3.2,'d','p'
3.36,'d','p'
3.3,'d','p'
2.69,'d','p'
2.45,'d','p'
2.3,'d','p'
2.49,'d','p'
3.05,'d','p'
3.35,'d','p'
3.56,'d','p'
2.92,'d','p'
2.19,'d','p'
3.1,'d','p'
2.67,'d','p'
2.42,'d','p'
3.3,'d','p'
2.71,'d','p'
2.58,'d','p'
3.16,'d','p'
2.89,'d','p'
2.69,'d','p'
2.78,'d','p'
2.75,'d','p'
3.09,'d','p'
2.87,'d','p'
2.91,'d','p'
2.87,'d','p'
2.83,'d','p'
3.12,'d','p'
3.4,'d','p'
3.19,'d','p'
3.41,'d','p'
3.03,'d','p'
3.21,'d','p'
2.7,'d','p'
2.52,'d','p'
2.69,'d','p'
2.94,'d','p'
2.82,'d','p'
2.94,'d','p'
3.2,'d','p'
3.11,'d','p'
3.42,'d','p'
3.58,'d','p'
2.21,'d','p'
3.3,'d','p'
2.66,'d','p'
2.48,'d','p'
2.57,'d','p'
2.54,'d','p'
3.22,'d','p'
3.11,'d','p'
3.13,'d','p'
3.09,'d','p'
2.94,'d','p'
3.09,'d','p'
2.88,'d','p'
2.73,'d','p'
3.11,'d','p'
2.71,'d','p'
2.71,'d','p'
3.04,'d','p'
2.56,'d','p'
2.84,'d','p'
2.69,'d','p'
2.95,'d','p'
2.79,'d','p'
3.05,'d','p'
3.15,'d','p'
2.71,'d','p'
3.02,'d','p'
3.17,'d','p'
3.43,'d','p'
3.25,'d','p'
3.18,'d','p'
10.2,'d','p'
8.62,'d','p'
10.9,'d','p'
8.12,'d','p'
8.74,'d','p'
9.3,'d','p'
7.87,'d','p'
9.78,'d','p'
10.96,'d','p'
10.16,'d','p'
10.5,'d','p'
9.21,'d','p'
8.03,'d','p'
8.74,'d','p'
9.13,'d','p'
6.67,'d','p'
6.14,'d','p'
10.44,'d','p'
9.7,'d','p'
8.02,'d','p'
10.84,'d','p'
12.72,'d','p'
6.96,'d','p'
6.38,'d','p'
12.65,'d','p'
9.68,'d','p'
10.3,'d','p'
10.89,'d','p'
12.69,'d','p'
10.08,'d','p'
12.4,'d','p'
10.76,'d','p'
6.85,'d','p'
10.27,'d','p'
10.04,'d','p'
9.71,'d','p'
9.22,'d','p'
9.31,'d','p'
8.66,'d','p'
9.81,'d','p'
13.39,'d','p'
11.19,'d','p'
11.49,'d','p'
7.43,'d','p'
10.49,'d','p'
8.83,'d','p'
10.62,'d','p'
8.39,'d','p'
7.6,'d','p'
5.08,'d','p'
9.84,'d','p'
10.13,'d','p'
7.54,'d','p'
10.41,'d','p'
8.65,'d','p'
11.54,'d','p'
9.53,'d','p'
10.24,'d','p'
11.06,'d','p'
11.61,'d','p'
8.81,'d','p'
9.16,'d','p'
9.5,'d','p'
7.17,'d','p'
9.72,'d','p'
9.91,'d','p'
5.12,'d','p'
10.22,'d','p'
8.28,'d','p'
7.86,'d','p'
9.28,'d','p'
11.2,'d','p'
8.23,'d','p'
11.39,'d','p'
10.99,'d','p'
8.5,'d','p'
10.11,'d','p'
11.58,'d','p'
11.16,'d','p'
12.63,'d','p'
13.87,'d','p'
7.69,'d','p'
8.18,'d','p'
11.01,'d','p'
10.68,'d','p'
10.25,'d','p'
9.68,'d','p'
7.32,'d','p'
6.28,'d','p'
10,'d','p'
10.47,'d','p'
9.85,'d','p'
12.34,'d','p'
12.21,'d','p'
10.05,'d','p'
8.86,'d','p'
9.64,'d','p'
13.51,'d','p'
9.87,'d','p'
10.3,'d','p'
8.93,'d','p'
10.69,'d','p'
10.35,'d','p'
11.59,'d','p'
12.44,'d','p'
12.18,'d','p'
9.8,'d','p'
7.52,'d','p'
10.21,'d','p'
8.91,'d','p'
9.65,'d','p'
9.7,'d','p'
14.15,'d','p'
9.93,'d','p'
8.07,'d','p'
12.04,'d','p'
11.43,'d','p'
9.54,'d','p'
10.33,'d','p'
8.69,'d','p'
10.26,'d','p'
13.47,'d','p'
9.1,'d','p'
12.63,'d','p'
8.53,'d','p'
12.64,'d','p'
7.43,'d','p'
11,'d','p'
10.36,'d','p'
8.84,'d','p'
11.73,'d','p'
11.45,'d','p'
9.34,'d','p'
9.92,'d','p'
10.2,'d','p'
10.29,'d','p'
9.22,'d','p'
9.17,'d','p'
10.61,'d','p'
9.22,'d','p'
10.29,'d','p'
8.67,'d','p'
8.75,'d','p'
7.9,'d','p'
8.98,'d','p'
9.55,'d','p'
10.34,'d','p'
10.92,'d','p'
9.19,'d','p'
8.69,'d','p'
13,'d','p'
8.89,'d','p'
9.55,'d','p'
10.02,'d','p'
8.07,'d','p'
10.84,'d','p'
8.28,'d','p'
8.69,'d','p'
12.28,'d','p'
7.86,'d','p'
11.18,'d','p'
9.18,'d','p'
11.06,'d','p'
9.64,'d','p'
11.91,'d','p'
13.84,'d','p'
12.37,'d','p'
7.12,'d','p'
10.96,'d','p'
10.49,'d','p'
7.35,'d','p'
12.08,'d','p'
7.8,'d','p'
8.6,'d','p'
8.38,'d','p'
10.26,'d','p'
11.45,'d','p'
13.03,'d','p'
10.09,'d','p'
11.5,'d','p'
8.72,'d','p'
11.1,'d','p'
10.18,'d','p'
11.26,'d','p'
7.2,'d','p'
12.62,'d','p'
7.94,'d','p'
11.34,'d','p'
8.32,'d','p'
9.09,'d','p'
9.54,'d','p'
8.32,'d','p'
11.49,'d','p'
7.42,'d','p'
9.94,'d','p'
8.84,'d','p'
8.21,'d','p'
10.91,'d','p'
10.52,'d','p'
12.64,'d','p'
12.94,'d','p'
8.26,'d','p'
10.37,'d','p'
10.25,'d','p'
9.74,'d','p'
10.47,'d','p'
10.92,'d','p'
11.52,'d','p'
11.16,'d','p'
11.42,'d','p'
10.01,'d','p'
9.9,'d','p'
10.48,'d','p'
13.21,'d','p'
9.1,'d','p'
10.64,'d','p'
11.25,'d','p'
6.72,'d','p'
8.96,'d','p'
9.61,'d','p'
8.45,'d','p'
8.7,'d','p'
8.01,'d','p'
9.52,'d','p'
12.91,'d','p'
8.1,'d','p'
12.64,'d','p'
6.57,'d','p'
10.1,'d','p'
10.07,'d','p'
9.86,'d','p'
11.14,'d','p'
8.46,'d','p'
8.72,'d','p'
9.32,'d','p'
8.74,'d','p'
8.91,'d','p'
9.6,'d','p'
11.66,'d','p'
9.05,'d','p'
7.03,'d','p'
8.58,'d','p'
8.01,'d','p'
10.96,'d','p'
10.86,'d','p'
8.55,'d','p'
12.44,'d','p'
9.8,'d','p'
12.39,'d','p'
10.06,'d','p'
8.21,'d','p'
9.27,'d','p'
11.03,'d','p'
11.28,'d','p'
8.87,'d','p'
9.99,'d','p'
11.45,'d','p'
9.52,'d','p'
8.52,'d','p'
12.14,'d','p'
8.68,'d','p'
9.87,'d','p'
7.7,'d','p'
6.82,'d','p'
9.69,'d','p'
11.76,'d','p'
7.11,'d','p'
10.3,'d','p'
10.75,'d','p'
10.48,'d','p'
10.73,'d','p'
10.17,'d','p'
12,'d','p'
14.49,'d','p'
9,'d','p'
8.08,'d','p'
7.86,'d','p'
8.5,'d','p'
11.08,'d','p'
9.7,'d','p'
11.27,'d','p'
9.76,'d','p'
10.77,'d','p'
8.74,'d','p'
7.08,'d','p'
11.12,'d','p'
10.12,'d','p'
8.67,'d','p'
8.92,'d','p'
8.48,'d','p'
8.72,'d','p'
11.94,'d','p'
5.26,'d','p'
12.24,'d','p'
9.74,'d','p'
9.38,'d','p'
9.9,'d','p'
10.47,'d','p'
8.86,'d','p'
7.92,'d','p'
8.78,'d','p'
9.39,'d','p'
9.9,'d','p'
11.33,'d','p'
12.48,'d','p'
12.28,'d','p'
6.91,'d','p'
9.72,'d','p'
11.25,'d','p'
11.56,'d','p'
12.67,'d','p'
11.01,'d','p'
8.95,'d','p'
7.65,'d','p'
9.54,'d','p'
10.58,'d','p'
12.21,'d','p'
9.64,'d','p'
10.85,'d','p'
6.74,'d','p'
7.26,'d','p'
7.77,'d','p'
10.11,'d','p'
8.74,'d','p'
10.85,'d','p'
8.49,'d','p'
8.3,'d','p'
6.92,'d','p'
11.67,'d','p'
10.71,'d','p'
9.42,'d','p'
9.45,'d','p'
8.72,'d','p'
10.89,'d','p'
10.95,'d','p'
9.04,'d','p'
10.81,'d','p'
8.92,'d','p'
10.73,'d','p'
8.12,'d','p'
8.65,'d','p'
9.7,'d','p'
13.34,'d','p'
8.37,'d','p'
10.54,'d','p'
12.24,'d','p'
11.7,'d','p'
10.05,'d','p'
11.76,'d','p'
8.54,'d','p'
7.3,'d','p'
10.4,'d','p'
10.75,'d','p'
5.25,'l','e'
5.95,'d','e'
4.83,'d','e'
6.83,'l','e'
6.35,'l','e'
4.04,'d','e'
5.13,'d','e'
5.21,'d','e'
4.84,'d','e'
7.24,'d','e'
4.19,'d','e'
6.73,'l','e'
6.44,'d','e'
5.34,'d','e'
5.62,'d','e'
3.58,'d','e'
5.77,'l','e'
5.91,'l','e'
4.82,'d','e'
5.08,'l','e'
6.29,'l','e'
4.82,'d','e'
5.22,'l','e'
6.5,'l','e'
4.52,'d','e'
6.47,'l','e'
5.97,'l','e'
6.57,'d','e'
4.86,'l','e'
4.5,'d','e'
3.54,'l','e'
5.48,'d','e'
3.73,'l','e'
7.11,'l','e'
3.88,'l','e'
5.73,'l','e'
4.78,'d','e'
4.87,'l','e'
5.14,'d','e'
6.15,'d','e'
5.19,'l','e'
5.08,'l','e'
5.04,'d','e'
6.87,'d','e'
6.35,'l','e'
5.07,'d','e'
4.95,'l','e'
4.78,'l','e'
4.83,'l','e'
5.58,'l','e'
5.72,'d','e'
4.44,'d','e'
6.17,'d','e'
5.97,'l','e'
4.58,'d','e'
4.96,'d','e'
5.54,'l','e'
5.39,'d','e'
4.13,'l','e'
5.23,'d','e'
6.73,'l','e'
4.34,'l','e'
4.41,'l','e'
4.42,'d','e'
5.2,'d','e'
5.72,'l','e'
6.13,'l','e'
6.27,'l','e'
3.21,'d','e'
5.97,'d','e'
5.06,'l','e'
5.98,'l','e'
6.03,'d','e'
4.73,'l','e'
6.5,'d','e'
5.76,'l','e'
5.79,'d','e'
5.06,'l','e'
4.86,'d','e'
4.27,'d','e'
5.81,'d','e'
5.17,'d','e'
4.64,'d','e'
6.02,'d','e'
6.18,'l','e'
5.77,'l','e'
5.51,'d','e'
5.79,'d','e'
4.84,'l','e'
5.81,'d','e'
5.7,'d','e'
5.53,'l','e'
4.67,'d','e'
5.12,'l','e'
5.73,'d','e'
4.68,'l','e'
5.92,'l','e'
7.29,'d','e'
4.77,'l','e'
4.71,'d','e'
4.51,'d','e'
4.76,'l','e'
6.39,'l','e'
5.61,'l','e'
5.22,'l','e'
5.24,'d','e'
4.21,'d','e'
4.78,'d','e'
6.29,'l','e'
6.07,'d','e'
4.75,'d','e'
6.62,'d','e'
5.94,'d','e'
5.36,'d','e'
6.14,'d','e'
4.95,'l','e'
7.89,'d','e'
4.28,'l','e'
5.82,'d','e'
6.81,'d','e'
6,'l','e'
6.24,'d','e'
5.06,'l','e'
6.18,'l','e'
4.47,'d','e'
5.97,'d','e'
7.19,'l','e'
5.61,'l','e'
5.96,'d','e'
4.36,'l','e'
5.35,'d','e'
6.11,'d','e'
4.69,'d','e'
7.49,'l','e'
5.8,'d','e'
6.71,'d','e'
6.16,'d','e'
5.33,'l','e'
5.72,'d','e'
5.45,'d','e'
7.42,'d','e'
6.22,'d','e'
3.93,'l','e'
5.72,'d','e'
5.3,'l','e'
5.74,'d','e'
4.86,'d','e'
5.53,'d','e'
4.82,'d','e'
4.89,'l','e'
5.73,'l','e'
6.42,'d','e'
6.79,'l','e'
5.38,'l','e'
6.02,'l','e'
5.74,'l','e'
5.15,'l','e'
5.14,'d','e'
4.88,'l','e'
3.87,'d','e'
5.24,'l','e'
5.03,'d','e'
6.45,'l','e'
6.12,'d','e'
6.21,'d','e'
4.74,'l','e'
5.17,'l','e'
5.66,'l','e'
6.18,'d','e'
6.53,'l','e'
6.6,'l','e'
4.65,'l','e'
5.73,'d','e'
3.79,'d','e'
4.61,'l','e'
6.21,'d','e'
4.2,'d','e'
5.55,'d','e'
4.88,'l','e'
5.58,'l','e'
5.25,'l','e'
3.62,'d','e'
5.93,'d','e'
5.14,'l','e'
4.92,'d','e'
6.09,'l','e'
6.44,'l','e'
5.66,'d','e'
5.96,'d','e'
4.49,'d','e'
5.02,'l','e'
5.34,'l','e'
5.82,'l','e'
5.41,'d','e'
5.94,'d','e'
5.45,'d','e'
5.96,'l','e'
3.79,'l','e'
5.4,'l','e'
6.3,'l','e'
5.18,'d','e'
4.9,'d','e'
6.54,'l','e'
6.35,'l','e'
4.63,'d','e'
6.75,'l','e'
4.46,'d','e'
5.9,'d','e'
3.85,'d','e'
3.99,'d','e'
3.28,'d','e'
6.96,'d','e'
5.78,'l','e'
5.66,'l','e'
6.13,'l','e'
5.85,'d','e'
6.47,'l','e'
6.45,'l','e'
4.8,'l','e'
4.93,'d','e'
6.43,'d','e'
4.36,'d','e'
7.36,'d','e'
4.9,'l','e'
6.05,'d','e'
3.4,'l','e'
6.75,'d','e'
6.73,'d','e'
6.81,'d','e'
6.48,'l','e'
5.09,'d','e'
5.32,'l','e'
4.17,'d','e'
7.1,'l','e'
5.36,'d','e'
5.06,'d','e'
5.22,'l','e'
6.37,'d','e'
5.29,'l','e'
6.55,'d','e'
4.71,'l','e'
5.73,'d','e'
4.91,'d','e'
5.11,'d','e'
6.34,'d','e'
4.29,'l','e'
5,'l','e'
6.32,'d','e'
5.48,'l','e'
5.84,'l','e'
4.82,'d','e'
5.91,'l','e'
7.04,'d','e'
7.49,'d','e'
5.42,'d','e'
4.94,'l','e'
4.69,'l','e'
4.65,'l','e'
5.82,'d','e'
5.23,'d','e'
6.64,'l','e'
5.64,'l','e'
6.46,'l','e'
5.18,'d','e'
5.72,'l','e'
4.46,'l','e'
6.1,'l','e'
6.27,'d','e'
5.64,'d','e'
3.98,'d','e'
5.81,'d','e'
5.16,'l','e'
5.7,'l','e'
5.62,'d','e'
6.19,'d','e'
6.09,'l','e'
4.46,'l','e'
6.86,'l','e'
5.18,'l','e'
6.31,'d','e'
5.34,'l','e'
6.37,'l','e'
5.54,'d','e'
5.42,'l','e'
4.57,'l','e'
6.51,'l','e'
4.97,'d','e'
3.82,'l','e'
3.91,'d','e'
5.6,'l','e'
5.21,'l','e'
5.61,'d','e'
5.56,'d','e'
4.96,'d','e'
4.69,'l','e'
5.8,'d','e'
4.8,'l','e'
4.98,'d','e'
6.02,'d','e'
6.13,'d','e'
6.62,'l','e'
4.3,'d','e'
5.13,'d','e'
5.73,'l','e'
4.06,'d','e'
5.94,'d','e'
4.48,'l','e'
6.39,'d','e'
5.26,'d','e'
6.19,'l','e'
4.82,'d','e'
5.32,'l','e'
6.04,'l','e'
5.44,'d','e'
6.54,'d','e'
5.19,'l','e'
6.15,'l','e'
5.45,'d','e'
6.23,'l','e'
4.65,'l','e'
6.61,'d','e'
5.13,'d','e'
5.08,'d','e'
6.12,'d','e'
6.39,'d','e'
4.13,'l','e'
5.37,'l','e'
3.56,'d','e'
5.2,'d','e'
4.53,'l','e'
5.65,'l','e'
6.55,'d','e'
5.35,'l','e'
5.59,'l','e'
5.88,'d','e'
6.71,'l','e'
5.44,'l','e'
4.88,'l','e'
6.95,'d','e'
4.44,'d','e'
5.09,'d','e'
4.14,'l','e'
4.69,'l','e'
5.86,'d','e'
4.66,'l','e'
5.55,'d','e'
6.13,'l','e'
5.62,'d','e'
4.67,'d','e'
7.28,'l','e'
6.6,'l','e'
4.19,'d','e'
5.19,'l','e'
1.11,'d','p'
1.21,'d','p'
1.28,'d','p'
1.28,'d','p'
1.22,'d','p'
1.27,'d','p'
1.29,'d','p'
1.31,'d','p'
1.32,'d','p'
1.37,'d','p'
1.31,'d','p'
1.27,'d','p'
1.25,'d','p'
1.19,'d','p'
1.1,'d','p'
1.28,'d','p'
1.44,'d','p'
1.16,'d','p'
1.23,'d','p'
1.4,'d','p'
1.36,'d','p'
1.21,'d','p'
1.28,'d','p'
1.23,'d','p'
1.28,'d','p'
1.15,'d','p'
1.26,'d','p'
1.31,'d','p'
1.4,'d','p'
1.32,'d','p'
1.22,'d','p'
1.3,'d','p'
1.19,'d','p'
1.29,'d','p'
1.23,'d','p'
1.24,'d','p'
1.41,'d','p'
1.19,'d','p'
1.2,'d','p'
1.31,'d','p'
1.23,'d','p'
1.25,'d','p'
1.24,'d','p'
1.21,'d','p'
1.39,'d','p'
1.2,'d','p'
1.32,'d','p'
1.4,'d','p'
1.31,'d','p'
1.24,'d','p'
1.06,'d','p'
1.32,'d','p'
1.22,'d','p'
1.28,'d','p'
1.22,'d','p'
1.21,'d','p'
1.2,'d','p'
1.25,'d','p'
1.1,'d','p'
1.23,'d','p'
1.36,'d','p'
1.35,'d','p'
1.16,'d','p'
1.2,'d','p'
1.21,'d','p'
1.19,'d','p'
1.4,'d','p'
1.22,'d','p'
1.44,'d','p'
1.18,'d','p'
1.28,'d','p'
1.23,'d','p'
1.1,'d','p'
1.24,'d','p'
1.36,'d','p'
1.18,'d','p'
1.16,'d','p'
1.28,'d','p'
1.23,'d','p'
1.26,'d','p'
1.17,'d','p'
1.31,'d','p'
1.25,'d','p'
1.24,'d','p'
1.27,'d','p'
1.3,'d','p'
1.3,'d','p'
1.12,'d','p'
1.2,'d','p'
1.15,'d','p'
1.26,'d','p'
1.38,'d','p'
1.32,'d','p'
1.13,'d','p'
1.18,'d','p'
1.3,'d','p'
1.29,'d','p'
1.11,'d','p'
1.17,'d','p'
1.36,'d','p'
1.24,'d','p'
1.28,'d','p'
1.07,'d','p'
1.4,'d','p'
1.29,'d','p'
1.3,'d','p'
1.27,'d','p'
1.2,'d','p'
1.15,'d','p'
1.31,'d','p'
1.2,'d','p'
1.32,'d','p'
1.39,'d','p'
1.23,'d','p'
1.36,'d','p'
1.29,'d','p'
1.31,'d','p'
1.2,'d','p'
1.29,'d','p'
1.2,'d','p'
1.18,'d','p'
1.22,'d','p'
1.28,'d','p'
1.27,'d','p'
1.27,'d','p'
1.27,'d','p'
1.24,'d','p'
1.18,'d','p'
1.33,'d','p'
1.12,'d','p'
1.25,'d','p'
1.37,'d','p'
1.35,'d','p'
1.25,'d','p'
1.1,'d','p'
1.32,'d','p'
1.23,'d','p'
1.18,'d','p'
1.27,'d','p'
1.24,'d','p'
1.18,'d','p'
1.31,'d','p'
1.2,'d','p'
1.25,'d','p'
1.12,'d','p'
1.19,'d','p'
1.3,'d','p'
1.3,'d','p'
1.19,'d','p'
1.39,'d','p'
1.21,'d','p'
1.21,'d','p'
1.21,'d','p'
1.33,'d','p'
1.23,'d','p'
1.37,'d','p'
1.18,'d','p'
1.2,'d','p'
1.25,'d','p'
1.43,'d','p'
1.3,'d','p'
1.26,'d','p'
1.16,'d','p'
1.31,'d','p'
1.17,'d','p'
1.27,'d','p'
1.38,'d','p'
1.29,'d','p'
1.17,'d','p'
1.17,'d','p'
1.15,'d','p'
1.35,'d','p'
1.21,'d','p'
1.18,'d','p'
1.34,'d','p'
1.28,'d','p'
1.16,'d','p'
1.11,'d','p'
1.24,'d','p'
1.37,'d','p'
1.27,'d','p'
1.35,'d','p'
1.14,'d','p'
1.24,'d','p'
1.25,'d','p'
1.32,'d','p'
1.19,'d','p'
1.12,'d','p'
1.18,'d','p'
1.25,'d','p'
1.33,'d','p'
1.3,'d','p'
1.21,'d','p'
1.28,'d','p'
1.33,'d','p'
1.37,'d','p'
1.09,'d','p'
1.36,'d','p'
1.35,'d','p'
1.27,'d','p'
1.21,'d','p'
1.17,'d','p'
1.31,'d','p'
1.21,'d','p'
1.25,'d','p'
1.23,'d','p'
1.34,'d','p'
1.19,'d','p'
1.19,'d','p'
1.24,'d','p'
1.19,'d','p'
1.3,'d','p'
1.23,'d','p'
1.11,'d','p'
1.2,'d','p'
1.32,'d','p'
1.19,'d','p'
1.39,'d','p'
1.24,'d','p'
1.19,'d','p'
1.31,'d','p'
1.43,'d','p'
1.37,'d','p'
1.23,'d','p'
1.36,'d','p'
1.17,'d','p'
1.35,'d','p'
1.22,'d','p'
1.17,'d','p'
1.17,'d','p'
1.16,'d','p'
1.25,'d','p'
1.17,'d','p'
1.14,'d','p'
1.31,'d','p'
1.28,'d','p'
1.24,'d','p'
1.33,'d','p'
1.31,'d','p'
1.11,'d','p'
1.36,'d','p'
1,'d','p'
1.19,'d','p'
1.29,'d','p'
1.25,'d','p'
1.27,'d','p'
1.22,'d','p'
1.17,'d','p'
1.16,'d','p'
1.3,'d','p'
1.07,'d','p'
1.29,'d','p'
1.2,'d','p'
1.32,'d','p'
1.24,'d','p'
1.28,'d','p'
1.16,'d','p'
1.28,'d','p'
1.14,'d','p'
1.24,'d','p'
1.32,'d','p'
1.29,'d','p'
1.28,'d','p'
1.2,'d','p'
1.28,'d','p'
1.31,'d','p'
1.16,'d','p'
1.08,'d','p'
1.27,'d','p'
1.08,'d','p'
1.28,'d','p'
1.15,'d','p'
1.24,'d','p'
1.09,'d','p'
1.27,'d','p'
1.14,'d','p'
1.35,'d','p'
1.18,'d','p'
1.22,'d','p'
1.2,'d','p'
1.23,'d','p'
1.26,'d','p'
1.07,'d','p'
1.18,'d','p'
1.26,'d','p'
1.27,'d','p'
1.34,'d','p'
1.18,'d','p'
1.28,'d','p'
1.26,'d','p'
1.17,'d','p'
1.29,'d','p'
1.31,'d','p'
1.3,'d','p'
1.23,'d','p'
1.22,'d','p'
1.27,'d','p'
1.09,'d','p'
1.23,'d','p'
1.24,'d','p'
1.12,'d','p'
1.23,'d','p'
1.23,'d','p'
1.23,'d','p'
1.31,'d','p'
1.2,'d','p'
1.19,'d','p'
1.17,'d','p'
1.35,'d','p'
1.14,'d','p'
1.28,'d','p'
1.29,'d','p'
1.34,'d','p'
1.28,'d','p'
1.3,'d','p'
1.24,'d','p'
1.18,'d','p'
1.18,'d','p'
1.19,'d','p'
1.03,'d','p'
1.21,'d','p'
1.26,'d','p'
1.26,'d','p'
1.2,'d','p'
1.16,'d','p'
1.26,'d','p'
1.16,'d','p'
1.21,'d','p'
1.34,'d','p'
1.16,'d','p'
1.2,'d','p'
1.26,'d','p'
1.19,'d','p'
1.16,'d','p'
1.15,'d','p'
1.17,'d','p'
1.3,'d','p'
1.31,'d','p'
1.2,'d','p'
1.27,'d','p'
1.29,'d','p'
1.44,'d','p'
1.19,'d','p'
1.15,'d','p'
1.13,'d','p'
1.25,'d','p'
1.25,'d','p'
1.42,'d','p'
1.18,'d','p'
1.27,'d','p'
1.27,'d','p'
1.24,'d','p'
1.17,'d','p'
